num_bands = 13
num_wann = 11

dis_win_min =  -10
dis_win_max =   10

dis_froz_min =  -0.6
dis_froz_max =   1

write_hr=T

guiding_centres=T

Begin Projections
Nb:d
Se:p
End Projections

kpath = true
kpath_task = bands
kpath_num_points=1000
bands_plot = true


begin unit_cell_cart
   3.485548338   0.000000000  -0.000000000
  -1.742774169   3.018573407   0.000000000
  -0.000000000  -0.000000000  14.067535935
end unit_cell_cart

begin atoms_frac
Nb            0.0000000000        0.0000000000        0.5000000000
Se            0.3333333333        0.6666666667        0.3801905240
Se            0.3333333333        0.6666666667        0.6198094760
end atoms_frac



begin kpoint_path
G 0.0000000000    0.0000000000     0.0000000000  M 0.0000000000     0.5000000000     0.0000000000  
M 0.0000000000    0.5000000000     0.0000000000  K 0.3333333333     0.3333333333     0.0000000000
K 0.3333333333    0.3333333333     0.0000000000  G 0.0000000000     0.0000000000     0.0000000000
end kpoint_path

mp_grid           = 24 24 1
begin kpoints
  0.00000000  0.00000000  0.00000000  1.736111e-03
  0.00000000  0.04166667  0.00000000  1.736111e-03
  0.00000000  0.08333333  0.00000000  1.736111e-03
  0.00000000  0.12500000  0.00000000  1.736111e-03
  0.00000000  0.16666667  0.00000000  1.736111e-03
  0.00000000  0.20833333  0.00000000  1.736111e-03
  0.00000000  0.25000000  0.00000000  1.736111e-03
  0.00000000  0.29166667  0.00000000  1.736111e-03
  0.00000000  0.33333333  0.00000000  1.736111e-03
  0.00000000  0.37500000  0.00000000  1.736111e-03
  0.00000000  0.41666667  0.00000000  1.736111e-03
  0.00000000  0.45833333  0.00000000  1.736111e-03
  0.00000000  0.50000000  0.00000000  1.736111e-03
  0.00000000  0.54166667  0.00000000  1.736111e-03
  0.00000000  0.58333333  0.00000000  1.736111e-03
  0.00000000  0.62500000  0.00000000  1.736111e-03
  0.00000000  0.66666667  0.00000000  1.736111e-03
  0.00000000  0.70833333  0.00000000  1.736111e-03
  0.00000000  0.75000000  0.00000000  1.736111e-03
  0.00000000  0.79166667  0.00000000  1.736111e-03
  0.00000000  0.83333333  0.00000000  1.736111e-03
  0.00000000  0.87500000  0.00000000  1.736111e-03
  0.00000000  0.91666667  0.00000000  1.736111e-03
  0.00000000  0.95833333  0.00000000  1.736111e-03
  0.04166667  0.00000000  0.00000000  1.736111e-03
  0.04166667  0.04166667  0.00000000  1.736111e-03
  0.04166667  0.08333333  0.00000000  1.736111e-03
  0.04166667  0.12500000  0.00000000  1.736111e-03
  0.04166667  0.16666667  0.00000000  1.736111e-03
  0.04166667  0.20833333  0.00000000  1.736111e-03
  0.04166667  0.25000000  0.00000000  1.736111e-03
  0.04166667  0.29166667  0.00000000  1.736111e-03
  0.04166667  0.33333333  0.00000000  1.736111e-03
  0.04166667  0.37500000  0.00000000  1.736111e-03
  0.04166667  0.41666667  0.00000000  1.736111e-03
  0.04166667  0.45833333  0.00000000  1.736111e-03
  0.04166667  0.50000000  0.00000000  1.736111e-03
  0.04166667  0.54166667  0.00000000  1.736111e-03
  0.04166667  0.58333333  0.00000000  1.736111e-03
  0.04166667  0.62500000  0.00000000  1.736111e-03
  0.04166667  0.66666667  0.00000000  1.736111e-03
  0.04166667  0.70833333  0.00000000  1.736111e-03
  0.04166667  0.75000000  0.00000000  1.736111e-03
  0.04166667  0.79166667  0.00000000  1.736111e-03
  0.04166667  0.83333333  0.00000000  1.736111e-03
  0.04166667  0.87500000  0.00000000  1.736111e-03
  0.04166667  0.91666667  0.00000000  1.736111e-03
  0.04166667  0.95833333  0.00000000  1.736111e-03
  0.08333333  0.00000000  0.00000000  1.736111e-03
  0.08333333  0.04166667  0.00000000  1.736111e-03
  0.08333333  0.08333333  0.00000000  1.736111e-03
  0.08333333  0.12500000  0.00000000  1.736111e-03
  0.08333333  0.16666667  0.00000000  1.736111e-03
  0.08333333  0.20833333  0.00000000  1.736111e-03
  0.08333333  0.25000000  0.00000000  1.736111e-03
  0.08333333  0.29166667  0.00000000  1.736111e-03
  0.08333333  0.33333333  0.00000000  1.736111e-03
  0.08333333  0.37500000  0.00000000  1.736111e-03
  0.08333333  0.41666667  0.00000000  1.736111e-03
  0.08333333  0.45833333  0.00000000  1.736111e-03
  0.08333333  0.50000000  0.00000000  1.736111e-03
  0.08333333  0.54166667  0.00000000  1.736111e-03
  0.08333333  0.58333333  0.00000000  1.736111e-03
  0.08333333  0.62500000  0.00000000  1.736111e-03
  0.08333333  0.66666667  0.00000000  1.736111e-03
  0.08333333  0.70833333  0.00000000  1.736111e-03
  0.08333333  0.75000000  0.00000000  1.736111e-03
  0.08333333  0.79166667  0.00000000  1.736111e-03
  0.08333333  0.83333333  0.00000000  1.736111e-03
  0.08333333  0.87500000  0.00000000  1.736111e-03
  0.08333333  0.91666667  0.00000000  1.736111e-03
  0.08333333  0.95833333  0.00000000  1.736111e-03
  0.12500000  0.00000000  0.00000000  1.736111e-03
  0.12500000  0.04166667  0.00000000  1.736111e-03
  0.12500000  0.08333333  0.00000000  1.736111e-03
  0.12500000  0.12500000  0.00000000  1.736111e-03
  0.12500000  0.16666667  0.00000000  1.736111e-03
  0.12500000  0.20833333  0.00000000  1.736111e-03
  0.12500000  0.25000000  0.00000000  1.736111e-03
  0.12500000  0.29166667  0.00000000  1.736111e-03
  0.12500000  0.33333333  0.00000000  1.736111e-03
  0.12500000  0.37500000  0.00000000  1.736111e-03
  0.12500000  0.41666667  0.00000000  1.736111e-03
  0.12500000  0.45833333  0.00000000  1.736111e-03
  0.12500000  0.50000000  0.00000000  1.736111e-03
  0.12500000  0.54166667  0.00000000  1.736111e-03
  0.12500000  0.58333333  0.00000000  1.736111e-03
  0.12500000  0.62500000  0.00000000  1.736111e-03
  0.12500000  0.66666667  0.00000000  1.736111e-03
  0.12500000  0.70833333  0.00000000  1.736111e-03
  0.12500000  0.75000000  0.00000000  1.736111e-03
  0.12500000  0.79166667  0.00000000  1.736111e-03
  0.12500000  0.83333333  0.00000000  1.736111e-03
  0.12500000  0.87500000  0.00000000  1.736111e-03
  0.12500000  0.91666667  0.00000000  1.736111e-03
  0.12500000  0.95833333  0.00000000  1.736111e-03
  0.16666667  0.00000000  0.00000000  1.736111e-03
  0.16666667  0.04166667  0.00000000  1.736111e-03
  0.16666667  0.08333333  0.00000000  1.736111e-03
  0.16666667  0.12500000  0.00000000  1.736111e-03
  0.16666667  0.16666667  0.00000000  1.736111e-03
  0.16666667  0.20833333  0.00000000  1.736111e-03
  0.16666667  0.25000000  0.00000000  1.736111e-03
  0.16666667  0.29166667  0.00000000  1.736111e-03
  0.16666667  0.33333333  0.00000000  1.736111e-03
  0.16666667  0.37500000  0.00000000  1.736111e-03
  0.16666667  0.41666667  0.00000000  1.736111e-03
  0.16666667  0.45833333  0.00000000  1.736111e-03
  0.16666667  0.50000000  0.00000000  1.736111e-03
  0.16666667  0.54166667  0.00000000  1.736111e-03
  0.16666667  0.58333333  0.00000000  1.736111e-03
  0.16666667  0.62500000  0.00000000  1.736111e-03
  0.16666667  0.66666667  0.00000000  1.736111e-03
  0.16666667  0.70833333  0.00000000  1.736111e-03
  0.16666667  0.75000000  0.00000000  1.736111e-03
  0.16666667  0.79166667  0.00000000  1.736111e-03
  0.16666667  0.83333333  0.00000000  1.736111e-03
  0.16666667  0.87500000  0.00000000  1.736111e-03
  0.16666667  0.91666667  0.00000000  1.736111e-03
  0.16666667  0.95833333  0.00000000  1.736111e-03
  0.20833333  0.00000000  0.00000000  1.736111e-03
  0.20833333  0.04166667  0.00000000  1.736111e-03
  0.20833333  0.08333333  0.00000000  1.736111e-03
  0.20833333  0.12500000  0.00000000  1.736111e-03
  0.20833333  0.16666667  0.00000000  1.736111e-03
  0.20833333  0.20833333  0.00000000  1.736111e-03
  0.20833333  0.25000000  0.00000000  1.736111e-03
  0.20833333  0.29166667  0.00000000  1.736111e-03
  0.20833333  0.33333333  0.00000000  1.736111e-03
  0.20833333  0.37500000  0.00000000  1.736111e-03
  0.20833333  0.41666667  0.00000000  1.736111e-03
  0.20833333  0.45833333  0.00000000  1.736111e-03
  0.20833333  0.50000000  0.00000000  1.736111e-03
  0.20833333  0.54166667  0.00000000  1.736111e-03
  0.20833333  0.58333333  0.00000000  1.736111e-03
  0.20833333  0.62500000  0.00000000  1.736111e-03
  0.20833333  0.66666667  0.00000000  1.736111e-03
  0.20833333  0.70833333  0.00000000  1.736111e-03
  0.20833333  0.75000000  0.00000000  1.736111e-03
  0.20833333  0.79166667  0.00000000  1.736111e-03
  0.20833333  0.83333333  0.00000000  1.736111e-03
  0.20833333  0.87500000  0.00000000  1.736111e-03
  0.20833333  0.91666667  0.00000000  1.736111e-03
  0.20833333  0.95833333  0.00000000  1.736111e-03
  0.25000000  0.00000000  0.00000000  1.736111e-03
  0.25000000  0.04166667  0.00000000  1.736111e-03
  0.25000000  0.08333333  0.00000000  1.736111e-03
  0.25000000  0.12500000  0.00000000  1.736111e-03
  0.25000000  0.16666667  0.00000000  1.736111e-03
  0.25000000  0.20833333  0.00000000  1.736111e-03
  0.25000000  0.25000000  0.00000000  1.736111e-03
  0.25000000  0.29166667  0.00000000  1.736111e-03
  0.25000000  0.33333333  0.00000000  1.736111e-03
  0.25000000  0.37500000  0.00000000  1.736111e-03
  0.25000000  0.41666667  0.00000000  1.736111e-03
  0.25000000  0.45833333  0.00000000  1.736111e-03
  0.25000000  0.50000000  0.00000000  1.736111e-03
  0.25000000  0.54166667  0.00000000  1.736111e-03
  0.25000000  0.58333333  0.00000000  1.736111e-03
  0.25000000  0.62500000  0.00000000  1.736111e-03
  0.25000000  0.66666667  0.00000000  1.736111e-03
  0.25000000  0.70833333  0.00000000  1.736111e-03
  0.25000000  0.75000000  0.00000000  1.736111e-03
  0.25000000  0.79166667  0.00000000  1.736111e-03
  0.25000000  0.83333333  0.00000000  1.736111e-03
  0.25000000  0.87500000  0.00000000  1.736111e-03
  0.25000000  0.91666667  0.00000000  1.736111e-03
  0.25000000  0.95833333  0.00000000  1.736111e-03
  0.29166667  0.00000000  0.00000000  1.736111e-03
  0.29166667  0.04166667  0.00000000  1.736111e-03
  0.29166667  0.08333333  0.00000000  1.736111e-03
  0.29166667  0.12500000  0.00000000  1.736111e-03
  0.29166667  0.16666667  0.00000000  1.736111e-03
  0.29166667  0.20833333  0.00000000  1.736111e-03
  0.29166667  0.25000000  0.00000000  1.736111e-03
  0.29166667  0.29166667  0.00000000  1.736111e-03
  0.29166667  0.33333333  0.00000000  1.736111e-03
  0.29166667  0.37500000  0.00000000  1.736111e-03
  0.29166667  0.41666667  0.00000000  1.736111e-03
  0.29166667  0.45833333  0.00000000  1.736111e-03
  0.29166667  0.50000000  0.00000000  1.736111e-03
  0.29166667  0.54166667  0.00000000  1.736111e-03
  0.29166667  0.58333333  0.00000000  1.736111e-03
  0.29166667  0.62500000  0.00000000  1.736111e-03
  0.29166667  0.66666667  0.00000000  1.736111e-03
  0.29166667  0.70833333  0.00000000  1.736111e-03
  0.29166667  0.75000000  0.00000000  1.736111e-03
  0.29166667  0.79166667  0.00000000  1.736111e-03
  0.29166667  0.83333333  0.00000000  1.736111e-03
  0.29166667  0.87500000  0.00000000  1.736111e-03
  0.29166667  0.91666667  0.00000000  1.736111e-03
  0.29166667  0.95833333  0.00000000  1.736111e-03
  0.33333333  0.00000000  0.00000000  1.736111e-03
  0.33333333  0.04166667  0.00000000  1.736111e-03
  0.33333333  0.08333333  0.00000000  1.736111e-03
  0.33333333  0.12500000  0.00000000  1.736111e-03
  0.33333333  0.16666667  0.00000000  1.736111e-03
  0.33333333  0.20833333  0.00000000  1.736111e-03
  0.33333333  0.25000000  0.00000000  1.736111e-03
  0.33333333  0.29166667  0.00000000  1.736111e-03
  0.33333333  0.33333333  0.00000000  1.736111e-03
  0.33333333  0.37500000  0.00000000  1.736111e-03
  0.33333333  0.41666667  0.00000000  1.736111e-03
  0.33333333  0.45833333  0.00000000  1.736111e-03
  0.33333333  0.50000000  0.00000000  1.736111e-03
  0.33333333  0.54166667  0.00000000  1.736111e-03
  0.33333333  0.58333333  0.00000000  1.736111e-03
  0.33333333  0.62500000  0.00000000  1.736111e-03
  0.33333333  0.66666667  0.00000000  1.736111e-03
  0.33333333  0.70833333  0.00000000  1.736111e-03
  0.33333333  0.75000000  0.00000000  1.736111e-03
  0.33333333  0.79166667  0.00000000  1.736111e-03
  0.33333333  0.83333333  0.00000000  1.736111e-03
  0.33333333  0.87500000  0.00000000  1.736111e-03
  0.33333333  0.91666667  0.00000000  1.736111e-03
  0.33333333  0.95833333  0.00000000  1.736111e-03
  0.37500000  0.00000000  0.00000000  1.736111e-03
  0.37500000  0.04166667  0.00000000  1.736111e-03
  0.37500000  0.08333333  0.00000000  1.736111e-03
  0.37500000  0.12500000  0.00000000  1.736111e-03
  0.37500000  0.16666667  0.00000000  1.736111e-03
  0.37500000  0.20833333  0.00000000  1.736111e-03
  0.37500000  0.25000000  0.00000000  1.736111e-03
  0.37500000  0.29166667  0.00000000  1.736111e-03
  0.37500000  0.33333333  0.00000000  1.736111e-03
  0.37500000  0.37500000  0.00000000  1.736111e-03
  0.37500000  0.41666667  0.00000000  1.736111e-03
  0.37500000  0.45833333  0.00000000  1.736111e-03
  0.37500000  0.50000000  0.00000000  1.736111e-03
  0.37500000  0.54166667  0.00000000  1.736111e-03
  0.37500000  0.58333333  0.00000000  1.736111e-03
  0.37500000  0.62500000  0.00000000  1.736111e-03
  0.37500000  0.66666667  0.00000000  1.736111e-03
  0.37500000  0.70833333  0.00000000  1.736111e-03
  0.37500000  0.75000000  0.00000000  1.736111e-03
  0.37500000  0.79166667  0.00000000  1.736111e-03
  0.37500000  0.83333333  0.00000000  1.736111e-03
  0.37500000  0.87500000  0.00000000  1.736111e-03
  0.37500000  0.91666667  0.00000000  1.736111e-03
  0.37500000  0.95833333  0.00000000  1.736111e-03
  0.41666667  0.00000000  0.00000000  1.736111e-03
  0.41666667  0.04166667  0.00000000  1.736111e-03
  0.41666667  0.08333333  0.00000000  1.736111e-03
  0.41666667  0.12500000  0.00000000  1.736111e-03
  0.41666667  0.16666667  0.00000000  1.736111e-03
  0.41666667  0.20833333  0.00000000  1.736111e-03
  0.41666667  0.25000000  0.00000000  1.736111e-03
  0.41666667  0.29166667  0.00000000  1.736111e-03
  0.41666667  0.33333333  0.00000000  1.736111e-03
  0.41666667  0.37500000  0.00000000  1.736111e-03
  0.41666667  0.41666667  0.00000000  1.736111e-03
  0.41666667  0.45833333  0.00000000  1.736111e-03
  0.41666667  0.50000000  0.00000000  1.736111e-03
  0.41666667  0.54166667  0.00000000  1.736111e-03
  0.41666667  0.58333333  0.00000000  1.736111e-03
  0.41666667  0.62500000  0.00000000  1.736111e-03
  0.41666667  0.66666667  0.00000000  1.736111e-03
  0.41666667  0.70833333  0.00000000  1.736111e-03
  0.41666667  0.75000000  0.00000000  1.736111e-03
  0.41666667  0.79166667  0.00000000  1.736111e-03
  0.41666667  0.83333333  0.00000000  1.736111e-03
  0.41666667  0.87500000  0.00000000  1.736111e-03
  0.41666667  0.91666667  0.00000000  1.736111e-03
  0.41666667  0.95833333  0.00000000  1.736111e-03
  0.45833333  0.00000000  0.00000000  1.736111e-03
  0.45833333  0.04166667  0.00000000  1.736111e-03
  0.45833333  0.08333333  0.00000000  1.736111e-03
  0.45833333  0.12500000  0.00000000  1.736111e-03
  0.45833333  0.16666667  0.00000000  1.736111e-03
  0.45833333  0.20833333  0.00000000  1.736111e-03
  0.45833333  0.25000000  0.00000000  1.736111e-03
  0.45833333  0.29166667  0.00000000  1.736111e-03
  0.45833333  0.33333333  0.00000000  1.736111e-03
  0.45833333  0.37500000  0.00000000  1.736111e-03
  0.45833333  0.41666667  0.00000000  1.736111e-03
  0.45833333  0.45833333  0.00000000  1.736111e-03
  0.45833333  0.50000000  0.00000000  1.736111e-03
  0.45833333  0.54166667  0.00000000  1.736111e-03
  0.45833333  0.58333333  0.00000000  1.736111e-03
  0.45833333  0.62500000  0.00000000  1.736111e-03
  0.45833333  0.66666667  0.00000000  1.736111e-03
  0.45833333  0.70833333  0.00000000  1.736111e-03
  0.45833333  0.75000000  0.00000000  1.736111e-03
  0.45833333  0.79166667  0.00000000  1.736111e-03
  0.45833333  0.83333333  0.00000000  1.736111e-03
  0.45833333  0.87500000  0.00000000  1.736111e-03
  0.45833333  0.91666667  0.00000000  1.736111e-03
  0.45833333  0.95833333  0.00000000  1.736111e-03
  0.50000000  0.00000000  0.00000000  1.736111e-03
  0.50000000  0.04166667  0.00000000  1.736111e-03
  0.50000000  0.08333333  0.00000000  1.736111e-03
  0.50000000  0.12500000  0.00000000  1.736111e-03
  0.50000000  0.16666667  0.00000000  1.736111e-03
  0.50000000  0.20833333  0.00000000  1.736111e-03
  0.50000000  0.25000000  0.00000000  1.736111e-03
  0.50000000  0.29166667  0.00000000  1.736111e-03
  0.50000000  0.33333333  0.00000000  1.736111e-03
  0.50000000  0.37500000  0.00000000  1.736111e-03
  0.50000000  0.41666667  0.00000000  1.736111e-03
  0.50000000  0.45833333  0.00000000  1.736111e-03
  0.50000000  0.50000000  0.00000000  1.736111e-03
  0.50000000  0.54166667  0.00000000  1.736111e-03
  0.50000000  0.58333333  0.00000000  1.736111e-03
  0.50000000  0.62500000  0.00000000  1.736111e-03
  0.50000000  0.66666667  0.00000000  1.736111e-03
  0.50000000  0.70833333  0.00000000  1.736111e-03
  0.50000000  0.75000000  0.00000000  1.736111e-03
  0.50000000  0.79166667  0.00000000  1.736111e-03
  0.50000000  0.83333333  0.00000000  1.736111e-03
  0.50000000  0.87500000  0.00000000  1.736111e-03
  0.50000000  0.91666667  0.00000000  1.736111e-03
  0.50000000  0.95833333  0.00000000  1.736111e-03
  0.54166667  0.00000000  0.00000000  1.736111e-03
  0.54166667  0.04166667  0.00000000  1.736111e-03
  0.54166667  0.08333333  0.00000000  1.736111e-03
  0.54166667  0.12500000  0.00000000  1.736111e-03
  0.54166667  0.16666667  0.00000000  1.736111e-03
  0.54166667  0.20833333  0.00000000  1.736111e-03
  0.54166667  0.25000000  0.00000000  1.736111e-03
  0.54166667  0.29166667  0.00000000  1.736111e-03
  0.54166667  0.33333333  0.00000000  1.736111e-03
  0.54166667  0.37500000  0.00000000  1.736111e-03
  0.54166667  0.41666667  0.00000000  1.736111e-03
  0.54166667  0.45833333  0.00000000  1.736111e-03
  0.54166667  0.50000000  0.00000000  1.736111e-03
  0.54166667  0.54166667  0.00000000  1.736111e-03
  0.54166667  0.58333333  0.00000000  1.736111e-03
  0.54166667  0.62500000  0.00000000  1.736111e-03
  0.54166667  0.66666667  0.00000000  1.736111e-03
  0.54166667  0.70833333  0.00000000  1.736111e-03
  0.54166667  0.75000000  0.00000000  1.736111e-03
  0.54166667  0.79166667  0.00000000  1.736111e-03
  0.54166667  0.83333333  0.00000000  1.736111e-03
  0.54166667  0.87500000  0.00000000  1.736111e-03
  0.54166667  0.91666667  0.00000000  1.736111e-03
  0.54166667  0.95833333  0.00000000  1.736111e-03
  0.58333333  0.00000000  0.00000000  1.736111e-03
  0.58333333  0.04166667  0.00000000  1.736111e-03
  0.58333333  0.08333333  0.00000000  1.736111e-03
  0.58333333  0.12500000  0.00000000  1.736111e-03
  0.58333333  0.16666667  0.00000000  1.736111e-03
  0.58333333  0.20833333  0.00000000  1.736111e-03
  0.58333333  0.25000000  0.00000000  1.736111e-03
  0.58333333  0.29166667  0.00000000  1.736111e-03
  0.58333333  0.33333333  0.00000000  1.736111e-03
  0.58333333  0.37500000  0.00000000  1.736111e-03
  0.58333333  0.41666667  0.00000000  1.736111e-03
  0.58333333  0.45833333  0.00000000  1.736111e-03
  0.58333333  0.50000000  0.00000000  1.736111e-03
  0.58333333  0.54166667  0.00000000  1.736111e-03
  0.58333333  0.58333333  0.00000000  1.736111e-03
  0.58333333  0.62500000  0.00000000  1.736111e-03
  0.58333333  0.66666667  0.00000000  1.736111e-03
  0.58333333  0.70833333  0.00000000  1.736111e-03
  0.58333333  0.75000000  0.00000000  1.736111e-03
  0.58333333  0.79166667  0.00000000  1.736111e-03
  0.58333333  0.83333333  0.00000000  1.736111e-03
  0.58333333  0.87500000  0.00000000  1.736111e-03
  0.58333333  0.91666667  0.00000000  1.736111e-03
  0.58333333  0.95833333  0.00000000  1.736111e-03
  0.62500000  0.00000000  0.00000000  1.736111e-03
  0.62500000  0.04166667  0.00000000  1.736111e-03
  0.62500000  0.08333333  0.00000000  1.736111e-03
  0.62500000  0.12500000  0.00000000  1.736111e-03
  0.62500000  0.16666667  0.00000000  1.736111e-03
  0.62500000  0.20833333  0.00000000  1.736111e-03
  0.62500000  0.25000000  0.00000000  1.736111e-03
  0.62500000  0.29166667  0.00000000  1.736111e-03
  0.62500000  0.33333333  0.00000000  1.736111e-03
  0.62500000  0.37500000  0.00000000  1.736111e-03
  0.62500000  0.41666667  0.00000000  1.736111e-03
  0.62500000  0.45833333  0.00000000  1.736111e-03
  0.62500000  0.50000000  0.00000000  1.736111e-03
  0.62500000  0.54166667  0.00000000  1.736111e-03
  0.62500000  0.58333333  0.00000000  1.736111e-03
  0.62500000  0.62500000  0.00000000  1.736111e-03
  0.62500000  0.66666667  0.00000000  1.736111e-03
  0.62500000  0.70833333  0.00000000  1.736111e-03
  0.62500000  0.75000000  0.00000000  1.736111e-03
  0.62500000  0.79166667  0.00000000  1.736111e-03
  0.62500000  0.83333333  0.00000000  1.736111e-03
  0.62500000  0.87500000  0.00000000  1.736111e-03
  0.62500000  0.91666667  0.00000000  1.736111e-03
  0.62500000  0.95833333  0.00000000  1.736111e-03
  0.66666667  0.00000000  0.00000000  1.736111e-03
  0.66666667  0.04166667  0.00000000  1.736111e-03
  0.66666667  0.08333333  0.00000000  1.736111e-03
  0.66666667  0.12500000  0.00000000  1.736111e-03
  0.66666667  0.16666667  0.00000000  1.736111e-03
  0.66666667  0.20833333  0.00000000  1.736111e-03
  0.66666667  0.25000000  0.00000000  1.736111e-03
  0.66666667  0.29166667  0.00000000  1.736111e-03
  0.66666667  0.33333333  0.00000000  1.736111e-03
  0.66666667  0.37500000  0.00000000  1.736111e-03
  0.66666667  0.41666667  0.00000000  1.736111e-03
  0.66666667  0.45833333  0.00000000  1.736111e-03
  0.66666667  0.50000000  0.00000000  1.736111e-03
  0.66666667  0.54166667  0.00000000  1.736111e-03
  0.66666667  0.58333333  0.00000000  1.736111e-03
  0.66666667  0.62500000  0.00000000  1.736111e-03
  0.66666667  0.66666667  0.00000000  1.736111e-03
  0.66666667  0.70833333  0.00000000  1.736111e-03
  0.66666667  0.75000000  0.00000000  1.736111e-03
  0.66666667  0.79166667  0.00000000  1.736111e-03
  0.66666667  0.83333333  0.00000000  1.736111e-03
  0.66666667  0.87500000  0.00000000  1.736111e-03
  0.66666667  0.91666667  0.00000000  1.736111e-03
  0.66666667  0.95833333  0.00000000  1.736111e-03
  0.70833333  0.00000000  0.00000000  1.736111e-03
  0.70833333  0.04166667  0.00000000  1.736111e-03
  0.70833333  0.08333333  0.00000000  1.736111e-03
  0.70833333  0.12500000  0.00000000  1.736111e-03
  0.70833333  0.16666667  0.00000000  1.736111e-03
  0.70833333  0.20833333  0.00000000  1.736111e-03
  0.70833333  0.25000000  0.00000000  1.736111e-03
  0.70833333  0.29166667  0.00000000  1.736111e-03
  0.70833333  0.33333333  0.00000000  1.736111e-03
  0.70833333  0.37500000  0.00000000  1.736111e-03
  0.70833333  0.41666667  0.00000000  1.736111e-03
  0.70833333  0.45833333  0.00000000  1.736111e-03
  0.70833333  0.50000000  0.00000000  1.736111e-03
  0.70833333  0.54166667  0.00000000  1.736111e-03
  0.70833333  0.58333333  0.00000000  1.736111e-03
  0.70833333  0.62500000  0.00000000  1.736111e-03
  0.70833333  0.66666667  0.00000000  1.736111e-03
  0.70833333  0.70833333  0.00000000  1.736111e-03
  0.70833333  0.75000000  0.00000000  1.736111e-03
  0.70833333  0.79166667  0.00000000  1.736111e-03
  0.70833333  0.83333333  0.00000000  1.736111e-03
  0.70833333  0.87500000  0.00000000  1.736111e-03
  0.70833333  0.91666667  0.00000000  1.736111e-03
  0.70833333  0.95833333  0.00000000  1.736111e-03
  0.75000000  0.00000000  0.00000000  1.736111e-03
  0.75000000  0.04166667  0.00000000  1.736111e-03
  0.75000000  0.08333333  0.00000000  1.736111e-03
  0.75000000  0.12500000  0.00000000  1.736111e-03
  0.75000000  0.16666667  0.00000000  1.736111e-03
  0.75000000  0.20833333  0.00000000  1.736111e-03
  0.75000000  0.25000000  0.00000000  1.736111e-03
  0.75000000  0.29166667  0.00000000  1.736111e-03
  0.75000000  0.33333333  0.00000000  1.736111e-03
  0.75000000  0.37500000  0.00000000  1.736111e-03
  0.75000000  0.41666667  0.00000000  1.736111e-03
  0.75000000  0.45833333  0.00000000  1.736111e-03
  0.75000000  0.50000000  0.00000000  1.736111e-03
  0.75000000  0.54166667  0.00000000  1.736111e-03
  0.75000000  0.58333333  0.00000000  1.736111e-03
  0.75000000  0.62500000  0.00000000  1.736111e-03
  0.75000000  0.66666667  0.00000000  1.736111e-03
  0.75000000  0.70833333  0.00000000  1.736111e-03
  0.75000000  0.75000000  0.00000000  1.736111e-03
  0.75000000  0.79166667  0.00000000  1.736111e-03
  0.75000000  0.83333333  0.00000000  1.736111e-03
  0.75000000  0.87500000  0.00000000  1.736111e-03
  0.75000000  0.91666667  0.00000000  1.736111e-03
  0.75000000  0.95833333  0.00000000  1.736111e-03
  0.79166667  0.00000000  0.00000000  1.736111e-03
  0.79166667  0.04166667  0.00000000  1.736111e-03
  0.79166667  0.08333333  0.00000000  1.736111e-03
  0.79166667  0.12500000  0.00000000  1.736111e-03
  0.79166667  0.16666667  0.00000000  1.736111e-03
  0.79166667  0.20833333  0.00000000  1.736111e-03
  0.79166667  0.25000000  0.00000000  1.736111e-03
  0.79166667  0.29166667  0.00000000  1.736111e-03
  0.79166667  0.33333333  0.00000000  1.736111e-03
  0.79166667  0.37500000  0.00000000  1.736111e-03
  0.79166667  0.41666667  0.00000000  1.736111e-03
  0.79166667  0.45833333  0.00000000  1.736111e-03
  0.79166667  0.50000000  0.00000000  1.736111e-03
  0.79166667  0.54166667  0.00000000  1.736111e-03
  0.79166667  0.58333333  0.00000000  1.736111e-03
  0.79166667  0.62500000  0.00000000  1.736111e-03
  0.79166667  0.66666667  0.00000000  1.736111e-03
  0.79166667  0.70833333  0.00000000  1.736111e-03
  0.79166667  0.75000000  0.00000000  1.736111e-03
  0.79166667  0.79166667  0.00000000  1.736111e-03
  0.79166667  0.83333333  0.00000000  1.736111e-03
  0.79166667  0.87500000  0.00000000  1.736111e-03
  0.79166667  0.91666667  0.00000000  1.736111e-03
  0.79166667  0.95833333  0.00000000  1.736111e-03
  0.83333333  0.00000000  0.00000000  1.736111e-03
  0.83333333  0.04166667  0.00000000  1.736111e-03
  0.83333333  0.08333333  0.00000000  1.736111e-03
  0.83333333  0.12500000  0.00000000  1.736111e-03
  0.83333333  0.16666667  0.00000000  1.736111e-03
  0.83333333  0.20833333  0.00000000  1.736111e-03
  0.83333333  0.25000000  0.00000000  1.736111e-03
  0.83333333  0.29166667  0.00000000  1.736111e-03
  0.83333333  0.33333333  0.00000000  1.736111e-03
  0.83333333  0.37500000  0.00000000  1.736111e-03
  0.83333333  0.41666667  0.00000000  1.736111e-03
  0.83333333  0.45833333  0.00000000  1.736111e-03
  0.83333333  0.50000000  0.00000000  1.736111e-03
  0.83333333  0.54166667  0.00000000  1.736111e-03
  0.83333333  0.58333333  0.00000000  1.736111e-03
  0.83333333  0.62500000  0.00000000  1.736111e-03
  0.83333333  0.66666667  0.00000000  1.736111e-03
  0.83333333  0.70833333  0.00000000  1.736111e-03
  0.83333333  0.75000000  0.00000000  1.736111e-03
  0.83333333  0.79166667  0.00000000  1.736111e-03
  0.83333333  0.83333333  0.00000000  1.736111e-03
  0.83333333  0.87500000  0.00000000  1.736111e-03
  0.83333333  0.91666667  0.00000000  1.736111e-03
  0.83333333  0.95833333  0.00000000  1.736111e-03
  0.87500000  0.00000000  0.00000000  1.736111e-03
  0.87500000  0.04166667  0.00000000  1.736111e-03
  0.87500000  0.08333333  0.00000000  1.736111e-03
  0.87500000  0.12500000  0.00000000  1.736111e-03
  0.87500000  0.16666667  0.00000000  1.736111e-03
  0.87500000  0.20833333  0.00000000  1.736111e-03
  0.87500000  0.25000000  0.00000000  1.736111e-03
  0.87500000  0.29166667  0.00000000  1.736111e-03
  0.87500000  0.33333333  0.00000000  1.736111e-03
  0.87500000  0.37500000  0.00000000  1.736111e-03
  0.87500000  0.41666667  0.00000000  1.736111e-03
  0.87500000  0.45833333  0.00000000  1.736111e-03
  0.87500000  0.50000000  0.00000000  1.736111e-03
  0.87500000  0.54166667  0.00000000  1.736111e-03
  0.87500000  0.58333333  0.00000000  1.736111e-03
  0.87500000  0.62500000  0.00000000  1.736111e-03
  0.87500000  0.66666667  0.00000000  1.736111e-03
  0.87500000  0.70833333  0.00000000  1.736111e-03
  0.87500000  0.75000000  0.00000000  1.736111e-03
  0.87500000  0.79166667  0.00000000  1.736111e-03
  0.87500000  0.83333333  0.00000000  1.736111e-03
  0.87500000  0.87500000  0.00000000  1.736111e-03
  0.87500000  0.91666667  0.00000000  1.736111e-03
  0.87500000  0.95833333  0.00000000  1.736111e-03
  0.91666667  0.00000000  0.00000000  1.736111e-03
  0.91666667  0.04166667  0.00000000  1.736111e-03
  0.91666667  0.08333333  0.00000000  1.736111e-03
  0.91666667  0.12500000  0.00000000  1.736111e-03
  0.91666667  0.16666667  0.00000000  1.736111e-03
  0.91666667  0.20833333  0.00000000  1.736111e-03
  0.91666667  0.25000000  0.00000000  1.736111e-03
  0.91666667  0.29166667  0.00000000  1.736111e-03
  0.91666667  0.33333333  0.00000000  1.736111e-03
  0.91666667  0.37500000  0.00000000  1.736111e-03
  0.91666667  0.41666667  0.00000000  1.736111e-03
  0.91666667  0.45833333  0.00000000  1.736111e-03
  0.91666667  0.50000000  0.00000000  1.736111e-03
  0.91666667  0.54166667  0.00000000  1.736111e-03
  0.91666667  0.58333333  0.00000000  1.736111e-03
  0.91666667  0.62500000  0.00000000  1.736111e-03
  0.91666667  0.66666667  0.00000000  1.736111e-03
  0.91666667  0.70833333  0.00000000  1.736111e-03
  0.91666667  0.75000000  0.00000000  1.736111e-03
  0.91666667  0.79166667  0.00000000  1.736111e-03
  0.91666667  0.83333333  0.00000000  1.736111e-03
  0.91666667  0.87500000  0.00000000  1.736111e-03
  0.91666667  0.91666667  0.00000000  1.736111e-03
  0.91666667  0.95833333  0.00000000  1.736111e-03
  0.95833333  0.00000000  0.00000000  1.736111e-03
  0.95833333  0.04166667  0.00000000  1.736111e-03
  0.95833333  0.08333333  0.00000000  1.736111e-03
  0.95833333  0.12500000  0.00000000  1.736111e-03
  0.95833333  0.16666667  0.00000000  1.736111e-03
  0.95833333  0.20833333  0.00000000  1.736111e-03
  0.95833333  0.25000000  0.00000000  1.736111e-03
  0.95833333  0.29166667  0.00000000  1.736111e-03
  0.95833333  0.33333333  0.00000000  1.736111e-03
  0.95833333  0.37500000  0.00000000  1.736111e-03
  0.95833333  0.41666667  0.00000000  1.736111e-03
  0.95833333  0.45833333  0.00000000  1.736111e-03
  0.95833333  0.50000000  0.00000000  1.736111e-03
  0.95833333  0.54166667  0.00000000  1.736111e-03
  0.95833333  0.58333333  0.00000000  1.736111e-03