&bands
outdir = './outdir'
prefix = 'NbSe2'
filband = 'bands.dat'
!plot_2d=.true
/
