&control
    calculation = 'scf'
    prefix = 'Si'
    outdir = './outdir'
    pseudo_dir = './'
    etot_conv_thr = 1e-5
    forc_conv_thr = 1e-4
/
&system
    ibrav=0
    nat=2
    ntyp=1
    ecutwfc=50
/
&electrons
    conv_thr=1e-8
/

&ions
/

&cell
/

ATOMIC_SPECIES
 Si  28.0855  Si.pbe-n-kjpaw_psl.1.0.0.UPF


CELL_PARAMETERS (angstrom)
   0.569197636   3.155085659   3.155085659
   3.155085659   0.569197636   3.155085659
   3.155085659   3.155085659   0.569197636

ATOMIC_POSITIONS (alat)
Si            0.0000000000        0.0000000000        0.0000000000    0   0   0
Si            0.3144867033        0.3144867033        0.3144867033    0   0   0

K_POINTS (automatic)
  8 8 8 0 0 0