&bands
outdir = './outdir'
prefix = 'Si'
filband = 'Si.bands.dat'
/