num_bands         = 12
num_wann          = 8
dis_win_max       = 17
dis_froz_max      = 6.4
dis_num_iter      = 120
dis_mix_ratio     = 1

num_iter          = 500
num_print_cycles  = 50

begin unit_cell_cart
angstrom
  -0.000191034   2.734636542   2.734636542
   2.734636542  -0.000191034   2.734636542
   2.734636542   2.734636542  -0.000191034
end unit_cell_cart

begin atoms_frac
Si           -0.0518049113       -0.0518049113       -0.0518049113
Si            0.3018210967        0.3018210967        0.3018210967
End atoms_frac

begin projections
Si : sp3
end projections


kpath = true
kpath_task = bands
kpath_num_points=1000
bands_plot = true

begin kpoint_path
W 0.5000000000	0.2500000000	0.7500000000 G	0.0000000000	0.0000000000	0.0000000000
G 0.0000000000	0.0000000000	0.0000000000 X	0.5000000000	0.0000000000	0.5000000000
X 0.5000000000	0.0000000000	0.5000000000 W 0.5000000000	0.2500000000	0.7500000000
W 0.5000000000	0.2500000000	0.7500000000 L	0.5000000000	0.5000000000	0.5000000000
L 0.5000000000	0.5000000000	0.5000000000 G	0.0000000000	0.0000000000	0.0000000000
end kpoint_path


mp_grid      = 4 4 4

begin kpoints
  0.00000000  0.00000000  0.00000000
  0.00000000  0.00000000  0.25000000
  0.00000000  0.00000000  0.50000000
  0.00000000  0.00000000  0.75000000
  0.00000000  0.25000000  0.00000000
  0.00000000  0.25000000  0.25000000
  0.00000000  0.25000000  0.50000000
  0.00000000  0.25000000  0.75000000
  0.00000000  0.50000000  0.00000000
  0.00000000  0.50000000  0.25000000
  0.00000000  0.50000000  0.50000000
  0.00000000  0.50000000  0.75000000
  0.00000000  0.75000000  0.00000000
  0.00000000  0.75000000  0.25000000
  0.00000000  0.75000000  0.50000000
  0.00000000  0.75000000  0.75000000
  0.25000000  0.00000000  0.00000000
  0.25000000  0.00000000  0.25000000
  0.25000000  0.00000000  0.50000000
  0.25000000  0.00000000  0.75000000
  0.25000000  0.25000000  0.00000000
  0.25000000  0.25000000  0.25000000
  0.25000000  0.25000000  0.50000000
  0.25000000  0.25000000  0.75000000
  0.25000000  0.50000000  0.00000000
  0.25000000  0.50000000  0.25000000
  0.25000000  0.50000000  0.50000000
  0.25000000  0.50000000  0.75000000
  0.25000000  0.75000000  0.00000000
  0.25000000  0.75000000  0.25000000
  0.25000000  0.75000000  0.50000000
  0.25000000  0.75000000  0.75000000
  0.50000000  0.00000000  0.00000000
  0.50000000  0.00000000  0.25000000
  0.50000000  0.00000000  0.50000000
  0.50000000  0.00000000  0.75000000
  0.50000000  0.25000000  0.00000000
  0.50000000  0.25000000  0.25000000
  0.50000000  0.25000000  0.50000000
  0.50000000  0.25000000  0.75000000
  0.50000000  0.50000000  0.00000000
  0.50000000  0.50000000  0.25000000
  0.50000000  0.50000000  0.50000000
  0.50000000  0.50000000  0.75000000
  0.50000000  0.75000000  0.00000000
  0.50000000  0.75000000  0.25000000
  0.50000000  0.75000000  0.50000000
  0.50000000  0.75000000  0.75000000
  0.75000000  0.00000000  0.00000000
  0.75000000  0.00000000  0.25000000
  0.75000000  0.00000000  0.50000000
  0.75000000  0.00000000  0.75000000
  0.75000000  0.25000000  0.00000000
  0.75000000  0.25000000  0.25000000
  0.75000000  0.25000000  0.50000000
  0.75000000  0.25000000  0.75000000
  0.75000000  0.50000000  0.00000000
  0.75000000  0.50000000  0.25000000
  0.75000000  0.50000000  0.50000000
  0.75000000  0.50000000  0.75000000
  0.75000000  0.75000000  0.00000000
  0.75000000  0.75000000  0.25000000
  0.75000000  0.75000000  0.50000000
  0.75000000  0.75000000  0.75000000
end kpoints
