num_wann=8
num_bands=12


Begin Projections
Si:sp3
End Projections


dis_win_max       = 17
dis_froz_max      =  6

guiding_centres=true

write_hr=T

kpath = true
kpath_task = bands

kpath_num_points=1000
bands_plot = true

begin kpoint_path
W 0.5000000000	0.2500000000	0.7500000000 G	0.0000000000	0.0000000000	0.0000000000
G 0.0000000000	0.0000000000	0.0000000000 X	0.5000000000	0.0000000000	0.5000000000
X 0.5000000000	0.0000000000	0.5000000000 W 0.5000000000	0.2500000000	0.7500000000
W 0.5000000000	0.2500000000	0.7500000000 L	0.5000000000	0.5000000000	0.5000000000
L 0.5000000000	0.5000000000	0.5000000000 G	0.0000000000	0.0000000000	0.0000000000
end kpoint_path


begin unit_cell_cart
  -0.000191034   2.734636542   2.734636542
   2.734636542  -0.000191034   2.734636542
   2.734636542   2.734636542  -0.000191034
end unit_cell_cart

begin atoms_frac
Si           -0.0518049113       -0.0518049113       -0.0518049113
Si            0.3018210967        0.3018210967        0.3018210967
end atoms_frac

mp_grid =     8     8     8

begin kpoints
  0.00000000  0.00000000  0.00000000  1.953125e-03
  0.00000000  0.00000000  0.12500000  1.953125e-03
  0.00000000  0.00000000  0.25000000  1.953125e-03
  0.00000000  0.00000000  0.37500000  1.953125e-03
  0.00000000  0.00000000  0.50000000  1.953125e-03
  0.00000000  0.00000000  0.62500000  1.953125e-03
  0.00000000  0.00000000  0.75000000  1.953125e-03
  0.00000000  0.00000000  0.87500000  1.953125e-03
  0.00000000  0.12500000  0.00000000  1.953125e-03
  0.00000000  0.12500000  0.12500000  1.953125e-03
  0.00000000  0.12500000  0.25000000  1.953125e-03
  0.00000000  0.12500000  0.37500000  1.953125e-03
  0.00000000  0.12500000  0.50000000  1.953125e-03
  0.00000000  0.12500000  0.62500000  1.953125e-03
  0.00000000  0.12500000  0.75000000  1.953125e-03
  0.00000000  0.12500000  0.87500000  1.953125e-03
  0.00000000  0.25000000  0.00000000  1.953125e-03
  0.00000000  0.25000000  0.12500000  1.953125e-03
  0.00000000  0.25000000  0.25000000  1.953125e-03
  0.00000000  0.25000000  0.37500000  1.953125e-03
  0.00000000  0.25000000  0.50000000  1.953125e-03
  0.00000000  0.25000000  0.62500000  1.953125e-03
  0.00000000  0.25000000  0.75000000  1.953125e-03
  0.00000000  0.25000000  0.87500000  1.953125e-03
  0.00000000  0.37500000  0.00000000  1.953125e-03
  0.00000000  0.37500000  0.12500000  1.953125e-03
  0.00000000  0.37500000  0.25000000  1.953125e-03
  0.00000000  0.37500000  0.37500000  1.953125e-03
  0.00000000  0.37500000  0.50000000  1.953125e-03
  0.00000000  0.37500000  0.62500000  1.953125e-03
  0.00000000  0.37500000  0.75000000  1.953125e-03
  0.00000000  0.37500000  0.87500000  1.953125e-03
  0.00000000  0.50000000  0.00000000  1.953125e-03
  0.00000000  0.50000000  0.12500000  1.953125e-03
  0.00000000  0.50000000  0.25000000  1.953125e-03
  0.00000000  0.50000000  0.37500000  1.953125e-03
  0.00000000  0.50000000  0.50000000  1.953125e-03
  0.00000000  0.50000000  0.62500000  1.953125e-03
  0.00000000  0.50000000  0.75000000  1.953125e-03
  0.00000000  0.50000000  0.87500000  1.953125e-03
  0.00000000  0.62500000  0.00000000  1.953125e-03
  0.00000000  0.62500000  0.12500000  1.953125e-03
  0.00000000  0.62500000  0.25000000  1.953125e-03
  0.00000000  0.62500000  0.37500000  1.953125e-03
  0.00000000  0.62500000  0.50000000  1.953125e-03
  0.00000000  0.62500000  0.62500000  1.953125e-03
  0.00000000  0.62500000  0.75000000  1.953125e-03
  0.00000000  0.62500000  0.87500000  1.953125e-03
  0.00000000  0.75000000  0.00000000  1.953125e-03
  0.00000000  0.75000000  0.12500000  1.953125e-03
  0.00000000  0.75000000  0.25000000  1.953125e-03
  0.00000000  0.75000000  0.37500000  1.953125e-03
  0.00000000  0.75000000  0.50000000  1.953125e-03
  0.00000000  0.75000000  0.62500000  1.953125e-03
  0.00000000  0.75000000  0.75000000  1.953125e-03
  0.00000000  0.75000000  0.87500000  1.953125e-03
  0.00000000  0.87500000  0.00000000  1.953125e-03
  0.00000000  0.87500000  0.12500000  1.953125e-03
  0.00000000  0.87500000  0.25000000  1.953125e-03
  0.00000000  0.87500000  0.37500000  1.953125e-03
  0.00000000  0.87500000  0.50000000  1.953125e-03
  0.00000000  0.87500000  0.62500000  1.953125e-03
  0.00000000  0.87500000  0.75000000  1.953125e-03
  0.00000000  0.87500000  0.87500000  1.953125e-03
  0.12500000  0.00000000  0.00000000  1.953125e-03
  0.12500000  0.00000000  0.12500000  1.953125e-03
  0.12500000  0.00000000  0.25000000  1.953125e-03
  0.12500000  0.00000000  0.37500000  1.953125e-03
  0.12500000  0.00000000  0.50000000  1.953125e-03
  0.12500000  0.00000000  0.62500000  1.953125e-03
  0.12500000  0.00000000  0.75000000  1.953125e-03
  0.12500000  0.00000000  0.87500000  1.953125e-03
  0.12500000  0.12500000  0.00000000  1.953125e-03
  0.12500000  0.12500000  0.12500000  1.953125e-03
  0.12500000  0.12500000  0.25000000  1.953125e-03
  0.12500000  0.12500000  0.37500000  1.953125e-03
  0.12500000  0.12500000  0.50000000  1.953125e-03
  0.12500000  0.12500000  0.62500000  1.953125e-03
  0.12500000  0.12500000  0.75000000  1.953125e-03
  0.12500000  0.12500000  0.87500000  1.953125e-03
  0.12500000  0.25000000  0.00000000  1.953125e-03
  0.12500000  0.25000000  0.12500000  1.953125e-03
  0.12500000  0.25000000  0.25000000  1.953125e-03
  0.12500000  0.25000000  0.37500000  1.953125e-03
  0.12500000  0.25000000  0.50000000  1.953125e-03
  0.12500000  0.25000000  0.62500000  1.953125e-03
  0.12500000  0.25000000  0.75000000  1.953125e-03
  0.12500000  0.25000000  0.87500000  1.953125e-03
  0.12500000  0.37500000  0.00000000  1.953125e-03
  0.12500000  0.37500000  0.12500000  1.953125e-03
  0.12500000  0.37500000  0.25000000  1.953125e-03
  0.12500000  0.37500000  0.37500000  1.953125e-03
  0.12500000  0.37500000  0.50000000  1.953125e-03
  0.12500000  0.37500000  0.62500000  1.953125e-03
  0.12500000  0.37500000  0.75000000  1.953125e-03
  0.12500000  0.37500000  0.87500000  1.953125e-03
  0.12500000  0.50000000  0.00000000  1.953125e-03
  0.12500000  0.50000000  0.12500000  1.953125e-03
  0.12500000  0.50000000  0.25000000  1.953125e-03
  0.12500000  0.50000000  0.37500000  1.953125e-03
  0.12500000  0.50000000  0.50000000  1.953125e-03
  0.12500000  0.50000000  0.62500000  1.953125e-03
  0.12500000  0.50000000  0.75000000  1.953125e-03
  0.12500000  0.50000000  0.87500000  1.953125e-03
  0.12500000  0.62500000  0.00000000  1.953125e-03
  0.12500000  0.62500000  0.12500000  1.953125e-03
  0.12500000  0.62500000  0.25000000  1.953125e-03
  0.12500000  0.62500000  0.37500000  1.953125e-03
  0.12500000  0.62500000  0.50000000  1.953125e-03
  0.12500000  0.62500000  0.62500000  1.953125e-03
  0.12500000  0.62500000  0.75000000  1.953125e-03
  0.12500000  0.62500000  0.87500000  1.953125e-03
  0.12500000  0.75000000  0.00000000  1.953125e-03
  0.12500000  0.75000000  0.12500000  1.953125e-03
  0.12500000  0.75000000  0.25000000  1.953125e-03
  0.12500000  0.75000000  0.37500000  1.953125e-03
  0.12500000  0.75000000  0.50000000  1.953125e-03
  0.12500000  0.75000000  0.62500000  1.953125e-03
  0.12500000  0.75000000  0.75000000  1.953125e-03
  0.12500000  0.75000000  0.87500000  1.953125e-03
  0.12500000  0.87500000  0.00000000  1.953125e-03
  0.12500000  0.87500000  0.12500000  1.953125e-03
  0.12500000  0.87500000  0.25000000  1.953125e-03
  0.12500000  0.87500000  0.37500000  1.953125e-03
  0.12500000  0.87500000  0.50000000  1.953125e-03
  0.12500000  0.87500000  0.62500000  1.953125e-03
  0.12500000  0.87500000  0.75000000  1.953125e-03
  0.12500000  0.87500000  0.87500000  1.953125e-03
  0.25000000  0.00000000  0.00000000  1.953125e-03
  0.25000000  0.00000000  0.12500000  1.953125e-03
  0.25000000  0.00000000  0.25000000  1.953125e-03
  0.25000000  0.00000000  0.37500000  1.953125e-03
  0.25000000  0.00000000  0.50000000  1.953125e-03
  0.25000000  0.00000000  0.62500000  1.953125e-03
  0.25000000  0.00000000  0.75000000  1.953125e-03
  0.25000000  0.00000000  0.87500000  1.953125e-03
  0.25000000  0.12500000  0.00000000  1.953125e-03
  0.25000000  0.12500000  0.12500000  1.953125e-03
  0.25000000  0.12500000  0.25000000  1.953125e-03
  0.25000000  0.12500000  0.37500000  1.953125e-03
  0.25000000  0.12500000  0.50000000  1.953125e-03
  0.25000000  0.12500000  0.62500000  1.953125e-03
  0.25000000  0.12500000  0.75000000  1.953125e-03
  0.25000000  0.12500000  0.87500000  1.953125e-03
  0.25000000  0.25000000  0.00000000  1.953125e-03
  0.25000000  0.25000000  0.12500000  1.953125e-03
  0.25000000  0.25000000  0.25000000  1.953125e-03
  0.25000000  0.25000000  0.37500000  1.953125e-03
  0.25000000  0.25000000  0.50000000  1.953125e-03
  0.25000000  0.25000000  0.62500000  1.953125e-03
  0.25000000  0.25000000  0.75000000  1.953125e-03
  0.25000000  0.25000000  0.87500000  1.953125e-03
  0.25000000  0.37500000  0.00000000  1.953125e-03
  0.25000000  0.37500000  0.12500000  1.953125e-03
  0.25000000  0.37500000  0.25000000  1.953125e-03
  0.25000000  0.37500000  0.37500000  1.953125e-03
  0.25000000  0.37500000  0.50000000  1.953125e-03
  0.25000000  0.37500000  0.62500000  1.953125e-03
  0.25000000  0.37500000  0.75000000  1.953125e-03
  0.25000000  0.37500000  0.87500000  1.953125e-03
  0.25000000  0.50000000  0.00000000  1.953125e-03
  0.25000000  0.50000000  0.12500000  1.953125e-03
  0.25000000  0.50000000  0.25000000  1.953125e-03
  0.25000000  0.50000000  0.37500000  1.953125e-03
  0.25000000  0.50000000  0.50000000  1.953125e-03
  0.25000000  0.50000000  0.62500000  1.953125e-03
  0.25000000  0.50000000  0.75000000  1.953125e-03
  0.25000000  0.50000000  0.87500000  1.953125e-03
  0.25000000  0.62500000  0.00000000  1.953125e-03
  0.25000000  0.62500000  0.12500000  1.953125e-03
  0.25000000  0.62500000  0.25000000  1.953125e-03
  0.25000000  0.62500000  0.37500000  1.953125e-03
  0.25000000  0.62500000  0.50000000  1.953125e-03
  0.25000000  0.62500000  0.62500000  1.953125e-03
  0.25000000  0.62500000  0.75000000  1.953125e-03
  0.25000000  0.62500000  0.87500000  1.953125e-03
  0.25000000  0.75000000  0.00000000  1.953125e-03
  0.25000000  0.75000000  0.12500000  1.953125e-03
  0.25000000  0.75000000  0.25000000  1.953125e-03
  0.25000000  0.75000000  0.37500000  1.953125e-03
  0.25000000  0.75000000  0.50000000  1.953125e-03
  0.25000000  0.75000000  0.62500000  1.953125e-03
  0.25000000  0.75000000  0.75000000  1.953125e-03
  0.25000000  0.75000000  0.87500000  1.953125e-03
  0.25000000  0.87500000  0.00000000  1.953125e-03
  0.25000000  0.87500000  0.12500000  1.953125e-03
  0.25000000  0.87500000  0.25000000  1.953125e-03
  0.25000000  0.87500000  0.37500000  1.953125e-03
  0.25000000  0.87500000  0.50000000  1.953125e-03
  0.25000000  0.87500000  0.62500000  1.953125e-03
  0.25000000  0.87500000  0.75000000  1.953125e-03
  0.25000000  0.87500000  0.87500000  1.953125e-03
  0.37500000  0.00000000  0.00000000  1.953125e-03
  0.37500000  0.00000000  0.12500000  1.953125e-03
  0.37500000  0.00000000  0.25000000  1.953125e-03
  0.37500000  0.00000000  0.37500000  1.953125e-03
  0.37500000  0.00000000  0.50000000  1.953125e-03
  0.37500000  0.00000000  0.62500000  1.953125e-03
  0.37500000  0.00000000  0.75000000  1.953125e-03
  0.37500000  0.00000000  0.87500000  1.953125e-03
  0.37500000  0.12500000  0.00000000  1.953125e-03
  0.37500000  0.12500000  0.12500000  1.953125e-03
  0.37500000  0.12500000  0.25000000  1.953125e-03
  0.37500000  0.12500000  0.37500000  1.953125e-03
  0.37500000  0.12500000  0.50000000  1.953125e-03
  0.37500000  0.12500000  0.62500000  1.953125e-03
  0.37500000  0.12500000  0.75000000  1.953125e-03
  0.37500000  0.12500000  0.87500000  1.953125e-03
  0.37500000  0.25000000  0.00000000  1.953125e-03
  0.37500000  0.25000000  0.12500000  1.953125e-03
  0.37500000  0.25000000  0.25000000  1.953125e-03
  0.37500000  0.25000000  0.37500000  1.953125e-03
  0.37500000  0.25000000  0.50000000  1.953125e-03
  0.37500000  0.25000000  0.62500000  1.953125e-03
  0.37500000  0.25000000  0.75000000  1.953125e-03
  0.37500000  0.25000000  0.87500000  1.953125e-03
  0.37500000  0.37500000  0.00000000  1.953125e-03
  0.37500000  0.37500000  0.12500000  1.953125e-03
  0.37500000  0.37500000  0.25000000  1.953125e-03
  0.37500000  0.37500000  0.37500000  1.953125e-03
  0.37500000  0.37500000  0.50000000  1.953125e-03
  0.37500000  0.37500000  0.62500000  1.953125e-03
  0.37500000  0.37500000  0.75000000  1.953125e-03
  0.37500000  0.37500000  0.87500000  1.953125e-03
  0.37500000  0.50000000  0.00000000  1.953125e-03
  0.37500000  0.50000000  0.12500000  1.953125e-03
  0.37500000  0.50000000  0.25000000  1.953125e-03
  0.37500000  0.50000000  0.37500000  1.953125e-03
  0.37500000  0.50000000  0.50000000  1.953125e-03
  0.37500000  0.50000000  0.62500000  1.953125e-03
  0.37500000  0.50000000  0.75000000  1.953125e-03
  0.37500000  0.50000000  0.87500000  1.953125e-03
  0.37500000  0.62500000  0.00000000  1.953125e-03
  0.37500000  0.62500000  0.12500000  1.953125e-03
  0.37500000  0.62500000  0.25000000  1.953125e-03
  0.37500000  0.62500000  0.37500000  1.953125e-03
  0.37500000  0.62500000  0.50000000  1.953125e-03
  0.37500000  0.62500000  0.62500000  1.953125e-03
  0.37500000  0.62500000  0.75000000  1.953125e-03
  0.37500000  0.62500000  0.87500000  1.953125e-03
  0.37500000  0.75000000  0.00000000  1.953125e-03
  0.37500000  0.75000000  0.12500000  1.953125e-03
  0.37500000  0.75000000  0.25000000  1.953125e-03
  0.37500000  0.75000000  0.37500000  1.953125e-03
  0.37500000  0.75000000  0.50000000  1.953125e-03
  0.37500000  0.75000000  0.62500000  1.953125e-03
  0.37500000  0.75000000  0.75000000  1.953125e-03
  0.37500000  0.75000000  0.87500000  1.953125e-03
  0.37500000  0.87500000  0.00000000  1.953125e-03
  0.37500000  0.87500000  0.12500000  1.953125e-03
  0.37500000  0.87500000  0.25000000  1.953125e-03
  0.37500000  0.87500000  0.37500000  1.953125e-03
  0.37500000  0.87500000  0.50000000  1.953125e-03
  0.37500000  0.87500000  0.62500000  1.953125e-03
  0.37500000  0.87500000  0.75000000  1.953125e-03
  0.37500000  0.87500000  0.87500000  1.953125e-03
  0.50000000  0.00000000  0.00000000  1.953125e-03
  0.50000000  0.00000000  0.12500000  1.953125e-03
  0.50000000  0.00000000  0.25000000  1.953125e-03
  0.50000000  0.00000000  0.37500000  1.953125e-03
  0.50000000  0.00000000  0.50000000  1.953125e-03
  0.50000000  0.00000000  0.62500000  1.953125e-03
  0.50000000  0.00000000  0.75000000  1.953125e-03
  0.50000000  0.00000000  0.87500000  1.953125e-03
  0.50000000  0.12500000  0.00000000  1.953125e-03
  0.50000000  0.12500000  0.12500000  1.953125e-03
  0.50000000  0.12500000  0.25000000  1.953125e-03
  0.50000000  0.12500000  0.37500000  1.953125e-03
  0.50000000  0.12500000  0.50000000  1.953125e-03
  0.50000000  0.12500000  0.62500000  1.953125e-03
  0.50000000  0.12500000  0.75000000  1.953125e-03
  0.50000000  0.12500000  0.87500000  1.953125e-03
  0.50000000  0.25000000  0.00000000  1.953125e-03
  0.50000000  0.25000000  0.12500000  1.953125e-03
  0.50000000  0.25000000  0.25000000  1.953125e-03
  0.50000000  0.25000000  0.37500000  1.953125e-03
  0.50000000  0.25000000  0.50000000  1.953125e-03
  0.50000000  0.25000000  0.62500000  1.953125e-03
  0.50000000  0.25000000  0.75000000  1.953125e-03
  0.50000000  0.25000000  0.87500000  1.953125e-03
  0.50000000  0.37500000  0.00000000  1.953125e-03
  0.50000000  0.37500000  0.12500000  1.953125e-03
  0.50000000  0.37500000  0.25000000  1.953125e-03
  0.50000000  0.37500000  0.37500000  1.953125e-03
  0.50000000  0.37500000  0.50000000  1.953125e-03
  0.50000000  0.37500000  0.62500000  1.953125e-03
  0.50000000  0.37500000  0.75000000  1.953125e-03
  0.50000000  0.37500000  0.87500000  1.953125e-03
  0.50000000  0.50000000  0.00000000  1.953125e-03
  0.50000000  0.50000000  0.12500000  1.953125e-03
  0.50000000  0.50000000  0.25000000  1.953125e-03
  0.50000000  0.50000000  0.37500000  1.953125e-03
  0.50000000  0.50000000  0.50000000  1.953125e-03
  0.50000000  0.50000000  0.62500000  1.953125e-03
  0.50000000  0.50000000  0.75000000  1.953125e-03
  0.50000000  0.50000000  0.87500000  1.953125e-03
  0.50000000  0.62500000  0.00000000  1.953125e-03
  0.50000000  0.62500000  0.12500000  1.953125e-03
  0.50000000  0.62500000  0.25000000  1.953125e-03
  0.50000000  0.62500000  0.37500000  1.953125e-03
  0.50000000  0.62500000  0.50000000  1.953125e-03
  0.50000000  0.62500000  0.62500000  1.953125e-03
  0.50000000  0.62500000  0.75000000  1.953125e-03
  0.50000000  0.62500000  0.87500000  1.953125e-03
  0.50000000  0.75000000  0.00000000  1.953125e-03
  0.50000000  0.75000000  0.12500000  1.953125e-03
  0.50000000  0.75000000  0.25000000  1.953125e-03
  0.50000000  0.75000000  0.37500000  1.953125e-03
  0.50000000  0.75000000  0.50000000  1.953125e-03
  0.50000000  0.75000000  0.62500000  1.953125e-03
  0.50000000  0.75000000  0.75000000  1.953125e-03
  0.50000000  0.75000000  0.87500000  1.953125e-03
  0.50000000  0.87500000  0.00000000  1.953125e-03
  0.50000000  0.87500000  0.12500000  1.953125e-03
  0.50000000  0.87500000  0.25000000  1.953125e-03
  0.50000000  0.87500000  0.37500000  1.953125e-03
  0.50000000  0.87500000  0.50000000  1.953125e-03
  0.50000000  0.87500000  0.62500000  1.953125e-03
  0.50000000  0.87500000  0.75000000  1.953125e-03
  0.50000000  0.87500000  0.87500000  1.953125e-03
  0.62500000  0.00000000  0.00000000  1.953125e-03
  0.62500000  0.00000000  0.12500000  1.953125e-03
  0.62500000  0.00000000  0.25000000  1.953125e-03
  0.62500000  0.00000000  0.37500000  1.953125e-03
  0.62500000  0.00000000  0.50000000  1.953125e-03
  0.62500000  0.00000000  0.62500000  1.953125e-03
  0.62500000  0.00000000  0.75000000  1.953125e-03
  0.62500000  0.00000000  0.87500000  1.953125e-03
  0.62500000  0.12500000  0.00000000  1.953125e-03
  0.62500000  0.12500000  0.12500000  1.953125e-03
  0.62500000  0.12500000  0.25000000  1.953125e-03
  0.62500000  0.12500000  0.37500000  1.953125e-03
  0.62500000  0.12500000  0.50000000  1.953125e-03
  0.62500000  0.12500000  0.62500000  1.953125e-03
  0.62500000  0.12500000  0.75000000  1.953125e-03
  0.62500000  0.12500000  0.87500000  1.953125e-03
  0.62500000  0.25000000  0.00000000  1.953125e-03
  0.62500000  0.25000000  0.12500000  1.953125e-03
  0.62500000  0.25000000  0.25000000  1.953125e-03
  0.62500000  0.25000000  0.37500000  1.953125e-03
  0.62500000  0.25000000  0.50000000  1.953125e-03
  0.62500000  0.25000000  0.62500000  1.953125e-03
  0.62500000  0.25000000  0.75000000  1.953125e-03
  0.62500000  0.25000000  0.87500000  1.953125e-03
  0.62500000  0.37500000  0.00000000  1.953125e-03
  0.62500000  0.37500000  0.12500000  1.953125e-03
  0.62500000  0.37500000  0.25000000  1.953125e-03
  0.62500000  0.37500000  0.37500000  1.953125e-03
  0.62500000  0.37500000  0.50000000  1.953125e-03
  0.62500000  0.37500000  0.62500000  1.953125e-03
  0.62500000  0.37500000  0.75000000  1.953125e-03
  0.62500000  0.37500000  0.87500000  1.953125e-03
  0.62500000  0.50000000  0.00000000  1.953125e-03
  0.62500000  0.50000000  0.12500000  1.953125e-03
  0.62500000  0.50000000  0.25000000  1.953125e-03
  0.62500000  0.50000000  0.37500000  1.953125e-03
  0.62500000  0.50000000  0.50000000  1.953125e-03
  0.62500000  0.50000000  0.62500000  1.953125e-03
  0.62500000  0.50000000  0.75000000  1.953125e-03
  0.62500000  0.50000000  0.87500000  1.953125e-03
  0.62500000  0.62500000  0.00000000  1.953125e-03
  0.62500000  0.62500000  0.12500000  1.953125e-03
  0.62500000  0.62500000  0.25000000  1.953125e-03
  0.62500000  0.62500000  0.37500000  1.953125e-03
  0.62500000  0.62500000  0.50000000  1.953125e-03
  0.62500000  0.62500000  0.62500000  1.953125e-03
  0.62500000  0.62500000  0.75000000  1.953125e-03
  0.62500000  0.62500000  0.87500000  1.953125e-03
  0.62500000  0.75000000  0.00000000  1.953125e-03
  0.62500000  0.75000000  0.12500000  1.953125e-03
  0.62500000  0.75000000  0.25000000  1.953125e-03
  0.62500000  0.75000000  0.37500000  1.953125e-03
  0.62500000  0.75000000  0.50000000  1.953125e-03
  0.62500000  0.75000000  0.62500000  1.953125e-03
  0.62500000  0.75000000  0.75000000  1.953125e-03
  0.62500000  0.75000000  0.87500000  1.953125e-03
  0.62500000  0.87500000  0.00000000  1.953125e-03
  0.62500000  0.87500000  0.12500000  1.953125e-03
  0.62500000  0.87500000  0.25000000  1.953125e-03
  0.62500000  0.87500000  0.37500000  1.953125e-03
  0.62500000  0.87500000  0.50000000  1.953125e-03
  0.62500000  0.87500000  0.62500000  1.953125e-03
  0.62500000  0.87500000  0.75000000  1.953125e-03
  0.62500000  0.87500000  0.87500000  1.953125e-03
  0.75000000  0.00000000  0.00000000  1.953125e-03
  0.75000000  0.00000000  0.12500000  1.953125e-03
  0.75000000  0.00000000  0.25000000  1.953125e-03
  0.75000000  0.00000000  0.37500000  1.953125e-03
  0.75000000  0.00000000  0.50000000  1.953125e-03
  0.75000000  0.00000000  0.62500000  1.953125e-03
  0.75000000  0.00000000  0.75000000  1.953125e-03
  0.75000000  0.00000000  0.87500000  1.953125e-03
  0.75000000  0.12500000  0.00000000  1.953125e-03
  0.75000000  0.12500000  0.12500000  1.953125e-03
  0.75000000  0.12500000  0.25000000  1.953125e-03
  0.75000000  0.12500000  0.37500000  1.953125e-03
  0.75000000  0.12500000  0.50000000  1.953125e-03
  0.75000000  0.12500000  0.62500000  1.953125e-03
  0.75000000  0.12500000  0.75000000  1.953125e-03
  0.75000000  0.12500000  0.87500000  1.953125e-03
  0.75000000  0.25000000  0.00000000  1.953125e-03
  0.75000000  0.25000000  0.12500000  1.953125e-03
  0.75000000  0.25000000  0.25000000  1.953125e-03
  0.75000000  0.25000000  0.37500000  1.953125e-03
  0.75000000  0.25000000  0.50000000  1.953125e-03
  0.75000000  0.25000000  0.62500000  1.953125e-03
  0.75000000  0.25000000  0.75000000  1.953125e-03
  0.75000000  0.25000000  0.87500000  1.953125e-03
  0.75000000  0.37500000  0.00000000  1.953125e-03
  0.75000000  0.37500000  0.12500000  1.953125e-03
  0.75000000  0.37500000  0.25000000  1.953125e-03
  0.75000000  0.37500000  0.37500000  1.953125e-03
  0.75000000  0.37500000  0.50000000  1.953125e-03
  0.75000000  0.37500000  0.62500000  1.953125e-03
  0.75000000  0.37500000  0.75000000  1.953125e-03
  0.75000000  0.37500000  0.87500000  1.953125e-03
  0.75000000  0.50000000  0.00000000  1.953125e-03
  0.75000000  0.50000000  0.12500000  1.953125e-03
  0.75000000  0.50000000  0.25000000  1.953125e-03
  0.75000000  0.50000000  0.37500000  1.953125e-03
  0.75000000  0.50000000  0.50000000  1.953125e-03
  0.75000000  0.50000000  0.62500000  1.953125e-03
  0.75000000  0.50000000  0.75000000  1.953125e-03
  0.75000000  0.50000000  0.87500000  1.953125e-03
  0.75000000  0.62500000  0.00000000  1.953125e-03
  0.75000000  0.62500000  0.12500000  1.953125e-03
  0.75000000  0.62500000  0.25000000  1.953125e-03
  0.75000000  0.62500000  0.37500000  1.953125e-03
  0.75000000  0.62500000  0.50000000  1.953125e-03
  0.75000000  0.62500000  0.62500000  1.953125e-03
  0.75000000  0.62500000  0.75000000  1.953125e-03
  0.75000000  0.62500000  0.87500000  1.953125e-03
  0.75000000  0.75000000  0.00000000  1.953125e-03
  0.75000000  0.75000000  0.12500000  1.953125e-03
  0.75000000  0.75000000  0.25000000  1.953125e-03
  0.75000000  0.75000000  0.37500000  1.953125e-03
  0.75000000  0.75000000  0.50000000  1.953125e-03
  0.75000000  0.75000000  0.62500000  1.953125e-03
  0.75000000  0.75000000  0.75000000  1.953125e-03
  0.75000000  0.75000000  0.87500000  1.953125e-03
  0.75000000  0.87500000  0.00000000  1.953125e-03
  0.75000000  0.87500000  0.12500000  1.953125e-03
  0.75000000  0.87500000  0.25000000  1.953125e-03
  0.75000000  0.87500000  0.37500000  1.953125e-03
  0.75000000  0.87500000  0.50000000  1.953125e-03
  0.75000000  0.87500000  0.62500000  1.953125e-03
  0.75000000  0.87500000  0.75000000  1.953125e-03
  0.75000000  0.87500000  0.87500000  1.953125e-03
  0.87500000  0.00000000  0.00000000  1.953125e-03
  0.87500000  0.00000000  0.12500000  1.953125e-03
  0.87500000  0.00000000  0.25000000  1.953125e-03
  0.87500000  0.00000000  0.37500000  1.953125e-03
  0.87500000  0.00000000  0.50000000  1.953125e-03
  0.87500000  0.00000000  0.62500000  1.953125e-03
  0.87500000  0.00000000  0.75000000  1.953125e-03
  0.87500000  0.00000000  0.87500000  1.953125e-03
  0.87500000  0.12500000  0.00000000  1.953125e-03
  0.87500000  0.12500000  0.12500000  1.953125e-03
  0.87500000  0.12500000  0.25000000  1.953125e-03
  0.87500000  0.12500000  0.37500000  1.953125e-03
  0.87500000  0.12500000  0.50000000  1.953125e-03
  0.87500000  0.12500000  0.62500000  1.953125e-03
  0.87500000  0.12500000  0.75000000  1.953125e-03
  0.87500000  0.12500000  0.87500000  1.953125e-03
  0.87500000  0.25000000  0.00000000  1.953125e-03
  0.87500000  0.25000000  0.12500000  1.953125e-03
  0.87500000  0.25000000  0.25000000  1.953125e-03
  0.87500000  0.25000000  0.37500000  1.953125e-03
  0.87500000  0.25000000  0.50000000  1.953125e-03
  0.87500000  0.25000000  0.62500000  1.953125e-03
  0.87500000  0.25000000  0.75000000  1.953125e-03
  0.87500000  0.25000000  0.87500000  1.953125e-03
  0.87500000  0.37500000  0.00000000  1.953125e-03
  0.87500000  0.37500000  0.12500000  1.953125e-03
  0.87500000  0.37500000  0.25000000  1.953125e-03
  0.87500000  0.37500000  0.37500000  1.953125e-03
  0.87500000  0.37500000  0.50000000  1.953125e-03
  0.87500000  0.37500000  0.62500000  1.953125e-03
  0.87500000  0.37500000  0.75000000  1.953125e-03
  0.87500000  0.37500000  0.87500000  1.953125e-03
  0.87500000  0.50000000  0.00000000  1.953125e-03
  0.87500000  0.50000000  0.12500000  1.953125e-03
  0.87500000  0.50000000  0.25000000  1.953125e-03
  0.87500000  0.50000000  0.37500000  1.953125e-03
  0.87500000  0.50000000  0.50000000  1.953125e-03
  0.87500000  0.50000000  0.62500000  1.953125e-03
  0.87500000  0.50000000  0.75000000  1.953125e-03
  0.87500000  0.50000000  0.87500000  1.953125e-03
  0.87500000  0.62500000  0.00000000  1.953125e-03
  0.87500000  0.62500000  0.12500000  1.953125e-03
  0.87500000  0.62500000  0.25000000  1.953125e-03
  0.87500000  0.62500000  0.37500000  1.953125e-03
  0.87500000  0.62500000  0.50000000  1.953125e-03
  0.87500000  0.62500000  0.62500000  1.953125e-03
  0.87500000  0.62500000  0.75000000  1.953125e-03
  0.87500000  0.62500000  0.87500000  1.953125e-03
  0.87500000  0.75000000  0.00000000  1.953125e-03
  0.87500000  0.75000000  0.12500000  1.953125e-03
  0.87500000  0.75000000  0.25000000  1.953125e-03
  0.87500000  0.75000000  0.37500000  1.953125e-03
  0.87500000  0.75000000  0.50000000  1.953125e-03
  0.87500000  0.75000000  0.62500000  1.953125e-03
  0.87500000  0.75000000  0.75000000  1.953125e-03
  0.87500000  0.75000000  0.87500000  1.953125e-03
  0.87500000  0.87500000  0.00000000  1.953125e-03
  0.87500000  0.87500000  0.12500000  1.953125e-03
  0.87500000  0.87500000  0.25000000  1.953125e-03
  0.87500000  0.87500000  0.37500000  1.953125e-03
  0.87500000  0.87500000  0.50000000  1.953125e-03
  0.87500000  0.87500000  0.62500000  1.953125e-03
  0.87500000  0.87500000  0.75000000  1.953125e-03
  0.87500000  0.87500000  0.87500000  1.953125e-03
end kpoints



