&inputph
  prefix   = 'NbSe2',
  fildyn   = 'NbSe2.dyn',
  amass(1) = 92.90,
  amass(2) = 78.96
  outdir   = './'
  ldisp    = .true.,
  trans    = .true.,
  fildvscf = 'dvscf',
  nq1=12,
  nq2=12,
  nq3=1,
  tr2_ph   =  1d-14
 /
