&input
  fildyn = 'NbSe2.dyn'
  zasr = 'simple'
  flfrc = 'NbSe2.fc'
/