&control
    calculation = 'vc-relax'
    prefix = 'Graphene'
    outdir = './outdir'
    pseudo_dir = '../PP'
    etot_conv_thr = 1e-5
    forc_conv_thr = 1e-4
/
&system
    ibrav=0
    nat=4
    ntyp=1
    ecutwfc=50
    ecutrho=350
    occupations = "smearing"
    smearing    = "gaussian"
    degauss=0.03
/
&electrons
    conv_thr=1e-8
/

&ions
/

&cell
/

ATOMIC_SPECIES
C  12.0107  C.pbe-n-kjpaw_psl.1.0.0.UPF


CELL_PARAMETERS (angstrom) 
2.4677241400 	0.0000000000 	0.0000000000
-1.2338620700 	2.1371117948 	0.0000000000
0.0000000000 	0.0000000000 	8.6850380000

K_POINTS (automatic)
  8 8 4 0 0 0


ATOMIC_POSITIONS {crystal}
C	0.0000000000	0.0000000000	0.2500000000
C	0.0000000000	0.0000000000	0.7500000000
C	0.6666666666	0.3333333333	0.2500000000
C	0.3333333333	0.6666666667	0.7500000000
