&CONTROL
  calculation = 'nscf'
  etot_conv_thr =   1d-05
  forc_conv_thr =   1d-04
  outdir = './'
  prefix = 'NbSe2'
  pseudo_dir = '../PP/'
  tprnfor = .true.
  tstress = .true.
/

&SYSTEM
  degauss =   0.01
  ecutwfc =   100
  ibrav = 0
  nat = 3
  ntyp = 2
  occupations = 'smearing'
  smearing = 'fd'
/

&ELECTRONS
  conv_thr =   1d-10
  mixing_mode='local-TF'
/

&IONS
/
&CELL
/

ATOMIC_SPECIES
Nb     92.90 Nb.pbe-mt_fhi.UPF
Se     78.96 Se.pbe-mt_fhi.UPF

ATOMIC_POSITIONS (crystal)
Nb            0.0000000000        0.0000000000        0.5000000000
Se            0.3333333333        0.6666666667        0.3801905240
Se            0.3333333333        0.6666666667        0.6198094760

CELL_PARAMETERS (angstrom)
   3.485548338   0.000000000  -0.000000000
  -1.742774169   3.018573407   0.000000000
  -0.000000000  -0.000000000  14.067535935

K_POINTS crystal
576
  0.00000000  0.00000000  0.00000000  1.736111e-03
  0.00000000  0.04166667  0.00000000  1.736111e-03
  0.00000000  0.08333333  0.00000000  1.736111e-03
  0.00000000  0.12500000  0.00000000  1.736111e-03
  0.00000000  0.16666667  0.00000000  1.736111e-03
  0.00000000  0.20833333  0.00000000  1.736111e-03
  0.00000000  0.25000000  0.00000000  1.736111e-03
  0.00000000  0.29166667  0.00000000  1.736111e-03
  0.00000000  0.33333333  0.00000000  1.736111e-03
  0.00000000  0.37500000  0.00000000  1.736111e-03
  0.00000000  0.41666667  0.00000000  1.736111e-03
  0.00000000  0.45833333  0.00000000  1.736111e-03
  0.00000000  0.50000000  0.00000000  1.736111e-03
  0.00000000  0.54166667  0.00000000  1.736111e-03
  0.00000000  0.58333333  0.00000000  1.736111e-03
  0.00000000  0.62500000  0.00000000  1.736111e-03
  0.00000000  0.66666667  0.00000000  1.736111e-03
  0.00000000  0.70833333  0.00000000  1.736111e-03
  0.00000000  0.75000000  0.00000000  1.736111e-03
  0.00000000  0.79166667  0.00000000  1.736111e-03
  0.00000000  0.83333333  0.00000000  1.736111e-03
  0.00000000  0.87500000  0.00000000  1.736111e-03
  0.00000000  0.91666667  0.00000000  1.736111e-03
  0.00000000  0.95833333  0.00000000  1.736111e-03
  0.04166667  0.00000000  0.00000000  1.736111e-03
  0.04166667  0.04166667  0.00000000  1.736111e-03
  0.04166667  0.08333333  0.00000000  1.736111e-03
  0.04166667  0.12500000  0.00000000  1.736111e-03
  0.04166667  0.16666667  0.00000000  1.736111e-03
  0.04166667  0.20833333  0.00000000  1.736111e-03
  0.04166667  0.25000000  0.00000000  1.736111e-03
  0.04166667  0.29166667  0.00000000  1.736111e-03
  0.04166667  0.33333333  0.00000000  1.736111e-03
  0.04166667  0.37500000  0.00000000  1.736111e-03
  0.04166667  0.41666667  0.00000000  1.736111e-03
  0.04166667  0.45833333  0.00000000  1.736111e-03
  0.04166667  0.50000000  0.00000000  1.736111e-03
  0.04166667  0.54166667  0.00000000  1.736111e-03
  0.04166667  0.58333333  0.00000000  1.736111e-03
  0.04166667  0.62500000  0.00000000  1.736111e-03
  0.04166667  0.66666667  0.00000000  1.736111e-03
  0.04166667  0.70833333  0.00000000  1.736111e-03
  0.04166667  0.75000000  0.00000000  1.736111e-03
  0.04166667  0.79166667  0.00000000  1.736111e-03
  0.04166667  0.83333333  0.00000000  1.736111e-03
  0.04166667  0.87500000  0.00000000  1.736111e-03
  0.04166667  0.91666667  0.00000000  1.736111e-03
  0.04166667  0.95833333  0.00000000  1.736111e-03
  0.08333333  0.00000000  0.00000000  1.736111e-03
  0.08333333  0.04166667  0.00000000  1.736111e-03
  0.08333333  0.08333333  0.00000000  1.736111e-03
  0.08333333  0.12500000  0.00000000  1.736111e-03
  0.08333333  0.16666667  0.00000000  1.736111e-03
  0.08333333  0.20833333  0.00000000  1.736111e-03
  0.08333333  0.25000000  0.00000000  1.736111e-03
  0.08333333  0.29166667  0.00000000  1.736111e-03
  0.08333333  0.33333333  0.00000000  1.736111e-03
  0.08333333  0.37500000  0.00000000  1.736111e-03
  0.08333333  0.41666667  0.00000000  1.736111e-03
  0.08333333  0.45833333  0.00000000  1.736111e-03
  0.08333333  0.50000000  0.00000000  1.736111e-03
  0.08333333  0.54166667  0.00000000  1.736111e-03
  0.08333333  0.58333333  0.00000000  1.736111e-03
  0.08333333  0.62500000  0.00000000  1.736111e-03
  0.08333333  0.66666667  0.00000000  1.736111e-03
  0.08333333  0.70833333  0.00000000  1.736111e-03
  0.08333333  0.75000000  0.00000000  1.736111e-03
  0.08333333  0.79166667  0.00000000  1.736111e-03
  0.08333333  0.83333333  0.00000000  1.736111e-03
  0.08333333  0.87500000  0.00000000  1.736111e-03
  0.08333333  0.91666667  0.00000000  1.736111e-03
  0.08333333  0.95833333  0.00000000  1.736111e-03
  0.12500000  0.00000000  0.00000000  1.736111e-03
  0.12500000  0.04166667  0.00000000  1.736111e-03
  0.12500000  0.08333333  0.00000000  1.736111e-03
  0.12500000  0.12500000  0.00000000  1.736111e-03
  0.12500000  0.16666667  0.00000000  1.736111e-03
  0.12500000  0.20833333  0.00000000  1.736111e-03
  0.12500000  0.25000000  0.00000000  1.736111e-03
  0.12500000  0.29166667  0.00000000  1.736111e-03
  0.12500000  0.33333333  0.00000000  1.736111e-03
  0.12500000  0.37500000  0.00000000  1.736111e-03
  0.12500000  0.41666667  0.00000000  1.736111e-03
  0.12500000  0.45833333  0.00000000  1.736111e-03
  0.12500000  0.50000000  0.00000000  1.736111e-03
  0.12500000  0.54166667  0.00000000  1.736111e-03
  0.12500000  0.58333333  0.00000000  1.736111e-03
  0.12500000  0.62500000  0.00000000  1.736111e-03
  0.12500000  0.66666667  0.00000000  1.736111e-03
  0.12500000  0.70833333  0.00000000  1.736111e-03
  0.12500000  0.75000000  0.00000000  1.736111e-03
  0.12500000  0.79166667  0.00000000  1.736111e-03
  0.12500000  0.83333333  0.00000000  1.736111e-03
  0.12500000  0.87500000  0.00000000  1.736111e-03
  0.12500000  0.91666667  0.00000000  1.736111e-03
  0.12500000  0.95833333  0.00000000  1.736111e-03
  0.16666667  0.00000000  0.00000000  1.736111e-03
  0.16666667  0.04166667  0.00000000  1.736111e-03
  0.16666667  0.08333333  0.00000000  1.736111e-03
  0.16666667  0.12500000  0.00000000  1.736111e-03
  0.16666667  0.16666667  0.00000000  1.736111e-03
  0.16666667  0.20833333  0.00000000  1.736111e-03
  0.16666667  0.25000000  0.00000000  1.736111e-03
  0.16666667  0.29166667  0.00000000  1.736111e-03
  0.16666667  0.33333333  0.00000000  1.736111e-03
  0.16666667  0.37500000  0.00000000  1.736111e-03
  0.16666667  0.41666667  0.00000000  1.736111e-03
  0.16666667  0.45833333  0.00000000  1.736111e-03
  0.16666667  0.50000000  0.00000000  1.736111e-03
  0.16666667  0.54166667  0.00000000  1.736111e-03
  0.16666667  0.58333333  0.00000000  1.736111e-03
  0.16666667  0.62500000  0.00000000  1.736111e-03
  0.16666667  0.66666667  0.00000000  1.736111e-03
  0.16666667  0.70833333  0.00000000  1.736111e-03
  0.16666667  0.75000000  0.00000000  1.736111e-03
  0.16666667  0.79166667  0.00000000  1.736111e-03
  0.16666667  0.83333333  0.00000000  1.736111e-03
  0.16666667  0.87500000  0.00000000  1.736111e-03
  0.16666667  0.91666667  0.00000000  1.736111e-03
  0.16666667  0.95833333  0.00000000  1.736111e-03
  0.20833333  0.00000000  0.00000000  1.736111e-03
  0.20833333  0.04166667  0.00000000  1.736111e-03
  0.20833333  0.08333333  0.00000000  1.736111e-03
  0.20833333  0.12500000  0.00000000  1.736111e-03
  0.20833333  0.16666667  0.00000000  1.736111e-03
  0.20833333  0.20833333  0.00000000  1.736111e-03
  0.20833333  0.25000000  0.00000000  1.736111e-03
  0.20833333  0.29166667  0.00000000  1.736111e-03
  0.20833333  0.33333333  0.00000000  1.736111e-03
  0.20833333  0.37500000  0.00000000  1.736111e-03
  0.20833333  0.41666667  0.00000000  1.736111e-03
  0.20833333  0.45833333  0.00000000  1.736111e-03
  0.20833333  0.50000000  0.00000000  1.736111e-03
  0.20833333  0.54166667  0.00000000  1.736111e-03
  0.20833333  0.58333333  0.00000000  1.736111e-03
  0.20833333  0.62500000  0.00000000  1.736111e-03
  0.20833333  0.66666667  0.00000000  1.736111e-03
  0.20833333  0.70833333  0.00000000  1.736111e-03
  0.20833333  0.75000000  0.00000000  1.736111e-03
  0.20833333  0.79166667  0.00000000  1.736111e-03
  0.20833333  0.83333333  0.00000000  1.736111e-03
  0.20833333  0.87500000  0.00000000  1.736111e-03
  0.20833333  0.91666667  0.00000000  1.736111e-03
  0.20833333  0.95833333  0.00000000  1.736111e-03
  0.25000000  0.00000000  0.00000000  1.736111e-03
  0.25000000  0.04166667  0.00000000  1.736111e-03
  0.25000000  0.08333333  0.00000000  1.736111e-03
  0.25000000  0.12500000  0.00000000  1.736111e-03
  0.25000000  0.16666667  0.00000000  1.736111e-03
  0.25000000  0.20833333  0.00000000  1.736111e-03
  0.25000000  0.25000000  0.00000000  1.736111e-03
  0.25000000  0.29166667  0.00000000  1.736111e-03
  0.25000000  0.33333333  0.00000000  1.736111e-03
  0.25000000  0.37500000  0.00000000  1.736111e-03
  0.25000000  0.41666667  0.00000000  1.736111e-03
  0.25000000  0.45833333  0.00000000  1.736111e-03
  0.25000000  0.50000000  0.00000000  1.736111e-03
  0.25000000  0.54166667  0.00000000  1.736111e-03
  0.25000000  0.58333333  0.00000000  1.736111e-03
  0.25000000  0.62500000  0.00000000  1.736111e-03
  0.25000000  0.66666667  0.00000000  1.736111e-03
  0.25000000  0.70833333  0.00000000  1.736111e-03
  0.25000000  0.75000000  0.00000000  1.736111e-03
  0.25000000  0.79166667  0.00000000  1.736111e-03
  0.25000000  0.83333333  0.00000000  1.736111e-03
  0.25000000  0.87500000  0.00000000  1.736111e-03
  0.25000000  0.91666667  0.00000000  1.736111e-03
  0.25000000  0.95833333  0.00000000  1.736111e-03
  0.29166667  0.00000000  0.00000000  1.736111e-03
  0.29166667  0.04166667  0.00000000  1.736111e-03
  0.29166667  0.08333333  0.00000000  1.736111e-03
  0.29166667  0.12500000  0.00000000  1.736111e-03
  0.29166667  0.16666667  0.00000000  1.736111e-03
  0.29166667  0.20833333  0.00000000  1.736111e-03
  0.29166667  0.25000000  0.00000000  1.736111e-03
  0.29166667  0.29166667  0.00000000  1.736111e-03
  0.29166667  0.33333333  0.00000000  1.736111e-03
  0.29166667  0.37500000  0.00000000  1.736111e-03
  0.29166667  0.41666667  0.00000000  1.736111e-03
  0.29166667  0.45833333  0.00000000  1.736111e-03
  0.29166667  0.50000000  0.00000000  1.736111e-03
  0.29166667  0.54166667  0.00000000  1.736111e-03
  0.29166667  0.58333333  0.00000000  1.736111e-03
  0.29166667  0.62500000  0.00000000  1.736111e-03
  0.29166667  0.66666667  0.00000000  1.736111e-03
  0.29166667  0.70833333  0.00000000  1.736111e-03
  0.29166667  0.75000000  0.00000000  1.736111e-03
  0.29166667  0.79166667  0.00000000  1.736111e-03
  0.29166667  0.83333333  0.00000000  1.736111e-03
  0.29166667  0.87500000  0.00000000  1.736111e-03
  0.29166667  0.91666667  0.00000000  1.736111e-03
  0.29166667  0.95833333  0.00000000  1.736111e-03
  0.33333333  0.00000000  0.00000000  1.736111e-03
  0.33333333  0.04166667  0.00000000  1.736111e-03
  0.33333333  0.08333333  0.00000000  1.736111e-03
  0.33333333  0.12500000  0.00000000  1.736111e-03
  0.33333333  0.16666667  0.00000000  1.736111e-03
  0.33333333  0.20833333  0.00000000  1.736111e-03
  0.33333333  0.25000000  0.00000000  1.736111e-03
  0.33333333  0.29166667  0.00000000  1.736111e-03
  0.33333333  0.33333333  0.00000000  1.736111e-03
  0.33333333  0.37500000  0.00000000  1.736111e-03
  0.33333333  0.41666667  0.00000000  1.736111e-03
  0.33333333  0.45833333  0.00000000  1.736111e-03
  0.33333333  0.50000000  0.00000000  1.736111e-03
  0.33333333  0.54166667  0.00000000  1.736111e-03
  0.33333333  0.58333333  0.00000000  1.736111e-03
  0.33333333  0.62500000  0.00000000  1.736111e-03
  0.33333333  0.66666667  0.00000000  1.736111e-03
  0.33333333  0.70833333  0.00000000  1.736111e-03
  0.33333333  0.75000000  0.00000000  1.736111e-03
  0.33333333  0.79166667  0.00000000  1.736111e-03
  0.33333333  0.83333333  0.00000000  1.736111e-03
  0.33333333  0.87500000  0.00000000  1.736111e-03
  0.33333333  0.91666667  0.00000000  1.736111e-03
  0.33333333  0.95833333  0.00000000  1.736111e-03
  0.37500000  0.00000000  0.00000000  1.736111e-03
  0.37500000  0.04166667  0.00000000  1.736111e-03
  0.37500000  0.08333333  0.00000000  1.736111e-03
  0.37500000  0.12500000  0.00000000  1.736111e-03
  0.37500000  0.16666667  0.00000000  1.736111e-03
  0.37500000  0.20833333  0.00000000  1.736111e-03
  0.37500000  0.25000000  0.00000000  1.736111e-03
  0.37500000  0.29166667  0.00000000  1.736111e-03
  0.37500000  0.33333333  0.00000000  1.736111e-03
  0.37500000  0.37500000  0.00000000  1.736111e-03
  0.37500000  0.41666667  0.00000000  1.736111e-03
  0.37500000  0.45833333  0.00000000  1.736111e-03
  0.37500000  0.50000000  0.00000000  1.736111e-03
  0.37500000  0.54166667  0.00000000  1.736111e-03
  0.37500000  0.58333333  0.00000000  1.736111e-03
  0.37500000  0.62500000  0.00000000  1.736111e-03
  0.37500000  0.66666667  0.00000000  1.736111e-03
  0.37500000  0.70833333  0.00000000  1.736111e-03
  0.37500000  0.75000000  0.00000000  1.736111e-03
  0.37500000  0.79166667  0.00000000  1.736111e-03
  0.37500000  0.83333333  0.00000000  1.736111e-03
  0.37500000  0.87500000  0.00000000  1.736111e-03
  0.37500000  0.91666667  0.00000000  1.736111e-03
  0.37500000  0.95833333  0.00000000  1.736111e-03
  0.41666667  0.00000000  0.00000000  1.736111e-03
  0.41666667  0.04166667  0.00000000  1.736111e-03
  0.41666667  0.08333333  0.00000000  1.736111e-03
  0.41666667  0.12500000  0.00000000  1.736111e-03
  0.41666667  0.16666667  0.00000000  1.736111e-03
  0.41666667  0.20833333  0.00000000  1.736111e-03
  0.41666667  0.25000000  0.00000000  1.736111e-03
  0.41666667  0.29166667  0.00000000  1.736111e-03
  0.41666667  0.33333333  0.00000000  1.736111e-03
  0.41666667  0.37500000  0.00000000  1.736111e-03
  0.41666667  0.41666667  0.00000000  1.736111e-03
  0.41666667  0.45833333  0.00000000  1.736111e-03
  0.41666667  0.50000000  0.00000000  1.736111e-03
  0.41666667  0.54166667  0.00000000  1.736111e-03
  0.41666667  0.58333333  0.00000000  1.736111e-03
  0.41666667  0.62500000  0.00000000  1.736111e-03
  0.41666667  0.66666667  0.00000000  1.736111e-03
  0.41666667  0.70833333  0.00000000  1.736111e-03
  0.41666667  0.75000000  0.00000000  1.736111e-03
  0.41666667  0.79166667  0.00000000  1.736111e-03
  0.41666667  0.83333333  0.00000000  1.736111e-03
  0.41666667  0.87500000  0.00000000  1.736111e-03
  0.41666667  0.91666667  0.00000000  1.736111e-03
  0.41666667  0.95833333  0.00000000  1.736111e-03
  0.45833333  0.00000000  0.00000000  1.736111e-03
  0.45833333  0.04166667  0.00000000  1.736111e-03
  0.45833333  0.08333333  0.00000000  1.736111e-03
  0.45833333  0.12500000  0.00000000  1.736111e-03
  0.45833333  0.16666667  0.00000000  1.736111e-03
  0.45833333  0.20833333  0.00000000  1.736111e-03
  0.45833333  0.25000000  0.00000000  1.736111e-03
  0.45833333  0.29166667  0.00000000  1.736111e-03
  0.45833333  0.33333333  0.00000000  1.736111e-03
  0.45833333  0.37500000  0.00000000  1.736111e-03
  0.45833333  0.41666667  0.00000000  1.736111e-03
  0.45833333  0.45833333  0.00000000  1.736111e-03
  0.45833333  0.50000000  0.00000000  1.736111e-03
  0.45833333  0.54166667  0.00000000  1.736111e-03
  0.45833333  0.58333333  0.00000000  1.736111e-03
  0.45833333  0.62500000  0.00000000  1.736111e-03
  0.45833333  0.66666667  0.00000000  1.736111e-03
  0.45833333  0.70833333  0.00000000  1.736111e-03
  0.45833333  0.75000000  0.00000000  1.736111e-03
  0.45833333  0.79166667  0.00000000  1.736111e-03
  0.45833333  0.83333333  0.00000000  1.736111e-03
  0.45833333  0.87500000  0.00000000  1.736111e-03
  0.45833333  0.91666667  0.00000000  1.736111e-03
  0.45833333  0.95833333  0.00000000  1.736111e-03
  0.50000000  0.00000000  0.00000000  1.736111e-03
  0.50000000  0.04166667  0.00000000  1.736111e-03
  0.50000000  0.08333333  0.00000000  1.736111e-03
  0.50000000  0.12500000  0.00000000  1.736111e-03
  0.50000000  0.16666667  0.00000000  1.736111e-03
  0.50000000  0.20833333  0.00000000  1.736111e-03
  0.50000000  0.25000000  0.00000000  1.736111e-03
  0.50000000  0.29166667  0.00000000  1.736111e-03
  0.50000000  0.33333333  0.00000000  1.736111e-03
  0.50000000  0.37500000  0.00000000  1.736111e-03
  0.50000000  0.41666667  0.00000000  1.736111e-03
  0.50000000  0.45833333  0.00000000  1.736111e-03
  0.50000000  0.50000000  0.00000000  1.736111e-03
  0.50000000  0.54166667  0.00000000  1.736111e-03
  0.50000000  0.58333333  0.00000000  1.736111e-03
  0.50000000  0.62500000  0.00000000  1.736111e-03
  0.50000000  0.66666667  0.00000000  1.736111e-03
  0.50000000  0.70833333  0.00000000  1.736111e-03
  0.50000000  0.75000000  0.00000000  1.736111e-03
  0.50000000  0.79166667  0.00000000  1.736111e-03
  0.50000000  0.83333333  0.00000000  1.736111e-03
  0.50000000  0.87500000  0.00000000  1.736111e-03
  0.50000000  0.91666667  0.00000000  1.736111e-03
  0.50000000  0.95833333  0.00000000  1.736111e-03
  0.54166667  0.00000000  0.00000000  1.736111e-03
  0.54166667  0.04166667  0.00000000  1.736111e-03
  0.54166667  0.08333333  0.00000000  1.736111e-03
  0.54166667  0.12500000  0.00000000  1.736111e-03
  0.54166667  0.16666667  0.00000000  1.736111e-03
  0.54166667  0.20833333  0.00000000  1.736111e-03
  0.54166667  0.25000000  0.00000000  1.736111e-03
  0.54166667  0.29166667  0.00000000  1.736111e-03
  0.54166667  0.33333333  0.00000000  1.736111e-03
  0.54166667  0.37500000  0.00000000  1.736111e-03
  0.54166667  0.41666667  0.00000000  1.736111e-03
  0.54166667  0.45833333  0.00000000  1.736111e-03
  0.54166667  0.50000000  0.00000000  1.736111e-03
  0.54166667  0.54166667  0.00000000  1.736111e-03
  0.54166667  0.58333333  0.00000000  1.736111e-03
  0.54166667  0.62500000  0.00000000  1.736111e-03
  0.54166667  0.66666667  0.00000000  1.736111e-03
  0.54166667  0.70833333  0.00000000  1.736111e-03
  0.54166667  0.75000000  0.00000000  1.736111e-03
  0.54166667  0.79166667  0.00000000  1.736111e-03
  0.54166667  0.83333333  0.00000000  1.736111e-03
  0.54166667  0.87500000  0.00000000  1.736111e-03
  0.54166667  0.91666667  0.00000000  1.736111e-03
  0.54166667  0.95833333  0.00000000  1.736111e-03
  0.58333333  0.00000000  0.00000000  1.736111e-03
  0.58333333  0.04166667  0.00000000  1.736111e-03
  0.58333333  0.08333333  0.00000000  1.736111e-03
  0.58333333  0.12500000  0.00000000  1.736111e-03
  0.58333333  0.16666667  0.00000000  1.736111e-03
  0.58333333  0.20833333  0.00000000  1.736111e-03
  0.58333333  0.25000000  0.00000000  1.736111e-03
  0.58333333  0.29166667  0.00000000  1.736111e-03
  0.58333333  0.33333333  0.00000000  1.736111e-03
  0.58333333  0.37500000  0.00000000  1.736111e-03
  0.58333333  0.41666667  0.00000000  1.736111e-03
  0.58333333  0.45833333  0.00000000  1.736111e-03
  0.58333333  0.50000000  0.00000000  1.736111e-03
  0.58333333  0.54166667  0.00000000  1.736111e-03
  0.58333333  0.58333333  0.00000000  1.736111e-03
  0.58333333  0.62500000  0.00000000  1.736111e-03
  0.58333333  0.66666667  0.00000000  1.736111e-03
  0.58333333  0.70833333  0.00000000  1.736111e-03
  0.58333333  0.75000000  0.00000000  1.736111e-03
  0.58333333  0.79166667  0.00000000  1.736111e-03
  0.58333333  0.83333333  0.00000000  1.736111e-03
  0.58333333  0.87500000  0.00000000  1.736111e-03
  0.58333333  0.91666667  0.00000000  1.736111e-03
  0.58333333  0.95833333  0.00000000  1.736111e-03
  0.62500000  0.00000000  0.00000000  1.736111e-03
  0.62500000  0.04166667  0.00000000  1.736111e-03
  0.62500000  0.08333333  0.00000000  1.736111e-03
  0.62500000  0.12500000  0.00000000  1.736111e-03
  0.62500000  0.16666667  0.00000000  1.736111e-03
  0.62500000  0.20833333  0.00000000  1.736111e-03
  0.62500000  0.25000000  0.00000000  1.736111e-03
  0.62500000  0.29166667  0.00000000  1.736111e-03
  0.62500000  0.33333333  0.00000000  1.736111e-03
  0.62500000  0.37500000  0.00000000  1.736111e-03
  0.62500000  0.41666667  0.00000000  1.736111e-03
  0.62500000  0.45833333  0.00000000  1.736111e-03
  0.62500000  0.50000000  0.00000000  1.736111e-03
  0.62500000  0.54166667  0.00000000  1.736111e-03
  0.62500000  0.58333333  0.00000000  1.736111e-03
  0.62500000  0.62500000  0.00000000  1.736111e-03
  0.62500000  0.66666667  0.00000000  1.736111e-03
  0.62500000  0.70833333  0.00000000  1.736111e-03
  0.62500000  0.75000000  0.00000000  1.736111e-03
  0.62500000  0.79166667  0.00000000  1.736111e-03
  0.62500000  0.83333333  0.00000000  1.736111e-03
  0.62500000  0.87500000  0.00000000  1.736111e-03
  0.62500000  0.91666667  0.00000000  1.736111e-03
  0.62500000  0.95833333  0.00000000  1.736111e-03
  0.66666667  0.00000000  0.00000000  1.736111e-03
  0.66666667  0.04166667  0.00000000  1.736111e-03
  0.66666667  0.08333333  0.00000000  1.736111e-03
  0.66666667  0.12500000  0.00000000  1.736111e-03
  0.66666667  0.16666667  0.00000000  1.736111e-03
  0.66666667  0.20833333  0.00000000  1.736111e-03
  0.66666667  0.25000000  0.00000000  1.736111e-03
  0.66666667  0.29166667  0.00000000  1.736111e-03
  0.66666667  0.33333333  0.00000000  1.736111e-03
  0.66666667  0.37500000  0.00000000  1.736111e-03
  0.66666667  0.41666667  0.00000000  1.736111e-03
  0.66666667  0.45833333  0.00000000  1.736111e-03
  0.66666667  0.50000000  0.00000000  1.736111e-03
  0.66666667  0.54166667  0.00000000  1.736111e-03
  0.66666667  0.58333333  0.00000000  1.736111e-03
  0.66666667  0.62500000  0.00000000  1.736111e-03
  0.66666667  0.66666667  0.00000000  1.736111e-03
  0.66666667  0.70833333  0.00000000  1.736111e-03
  0.66666667  0.75000000  0.00000000  1.736111e-03
  0.66666667  0.79166667  0.00000000  1.736111e-03
  0.66666667  0.83333333  0.00000000  1.736111e-03
  0.66666667  0.87500000  0.00000000  1.736111e-03
  0.66666667  0.91666667  0.00000000  1.736111e-03
  0.66666667  0.95833333  0.00000000  1.736111e-03
  0.70833333  0.00000000  0.00000000  1.736111e-03
  0.70833333  0.04166667  0.00000000  1.736111e-03
  0.70833333  0.08333333  0.00000000  1.736111e-03
  0.70833333  0.12500000  0.00000000  1.736111e-03
  0.70833333  0.16666667  0.00000000  1.736111e-03
  0.70833333  0.20833333  0.00000000  1.736111e-03
  0.70833333  0.25000000  0.00000000  1.736111e-03
  0.70833333  0.29166667  0.00000000  1.736111e-03
  0.70833333  0.33333333  0.00000000  1.736111e-03
  0.70833333  0.37500000  0.00000000  1.736111e-03
  0.70833333  0.41666667  0.00000000  1.736111e-03
  0.70833333  0.45833333  0.00000000  1.736111e-03
  0.70833333  0.50000000  0.00000000  1.736111e-03
  0.70833333  0.54166667  0.00000000  1.736111e-03
  0.70833333  0.58333333  0.00000000  1.736111e-03
  0.70833333  0.62500000  0.00000000  1.736111e-03
  0.70833333  0.66666667  0.00000000  1.736111e-03
  0.70833333  0.70833333  0.00000000  1.736111e-03
  0.70833333  0.75000000  0.00000000  1.736111e-03
  0.70833333  0.79166667  0.00000000  1.736111e-03
  0.70833333  0.83333333  0.00000000  1.736111e-03
  0.70833333  0.87500000  0.00000000  1.736111e-03
  0.70833333  0.91666667  0.00000000  1.736111e-03
  0.70833333  0.95833333  0.00000000  1.736111e-03
  0.75000000  0.00000000  0.00000000  1.736111e-03
  0.75000000  0.04166667  0.00000000  1.736111e-03
  0.75000000  0.08333333  0.00000000  1.736111e-03
  0.75000000  0.12500000  0.00000000  1.736111e-03
  0.75000000  0.16666667  0.00000000  1.736111e-03
  0.75000000  0.20833333  0.00000000  1.736111e-03
  0.75000000  0.25000000  0.00000000  1.736111e-03
  0.75000000  0.29166667  0.00000000  1.736111e-03
  0.75000000  0.33333333  0.00000000  1.736111e-03
  0.75000000  0.37500000  0.00000000  1.736111e-03
  0.75000000  0.41666667  0.00000000  1.736111e-03
  0.75000000  0.45833333  0.00000000  1.736111e-03
  0.75000000  0.50000000  0.00000000  1.736111e-03
  0.75000000  0.54166667  0.00000000  1.736111e-03
  0.75000000  0.58333333  0.00000000  1.736111e-03
  0.75000000  0.62500000  0.00000000  1.736111e-03
  0.75000000  0.66666667  0.00000000  1.736111e-03
  0.75000000  0.70833333  0.00000000  1.736111e-03
  0.75000000  0.75000000  0.00000000  1.736111e-03
  0.75000000  0.79166667  0.00000000  1.736111e-03
  0.75000000  0.83333333  0.00000000  1.736111e-03
  0.75000000  0.87500000  0.00000000  1.736111e-03
  0.75000000  0.91666667  0.00000000  1.736111e-03
  0.75000000  0.95833333  0.00000000  1.736111e-03
  0.79166667  0.00000000  0.00000000  1.736111e-03
  0.79166667  0.04166667  0.00000000  1.736111e-03
  0.79166667  0.08333333  0.00000000  1.736111e-03
  0.79166667  0.12500000  0.00000000  1.736111e-03
  0.79166667  0.16666667  0.00000000  1.736111e-03
  0.79166667  0.20833333  0.00000000  1.736111e-03
  0.79166667  0.25000000  0.00000000  1.736111e-03
  0.79166667  0.29166667  0.00000000  1.736111e-03
  0.79166667  0.33333333  0.00000000  1.736111e-03
  0.79166667  0.37500000  0.00000000  1.736111e-03
  0.79166667  0.41666667  0.00000000  1.736111e-03
  0.79166667  0.45833333  0.00000000  1.736111e-03
  0.79166667  0.50000000  0.00000000  1.736111e-03
  0.79166667  0.54166667  0.00000000  1.736111e-03
  0.79166667  0.58333333  0.00000000  1.736111e-03
  0.79166667  0.62500000  0.00000000  1.736111e-03
  0.79166667  0.66666667  0.00000000  1.736111e-03
  0.79166667  0.70833333  0.00000000  1.736111e-03
  0.79166667  0.75000000  0.00000000  1.736111e-03
  0.79166667  0.79166667  0.00000000  1.736111e-03
  0.79166667  0.83333333  0.00000000  1.736111e-03
  0.79166667  0.87500000  0.00000000  1.736111e-03
  0.79166667  0.91666667  0.00000000  1.736111e-03
  0.79166667  0.95833333  0.00000000  1.736111e-03
  0.83333333  0.00000000  0.00000000  1.736111e-03
  0.83333333  0.04166667  0.00000000  1.736111e-03
  0.83333333  0.08333333  0.00000000  1.736111e-03
  0.83333333  0.12500000  0.00000000  1.736111e-03
  0.83333333  0.16666667  0.00000000  1.736111e-03
  0.83333333  0.20833333  0.00000000  1.736111e-03
  0.83333333  0.25000000  0.00000000  1.736111e-03
  0.83333333  0.29166667  0.00000000  1.736111e-03
  0.83333333  0.33333333  0.00000000  1.736111e-03
  0.83333333  0.37500000  0.00000000  1.736111e-03
  0.83333333  0.41666667  0.00000000  1.736111e-03
  0.83333333  0.45833333  0.00000000  1.736111e-03
  0.83333333  0.50000000  0.00000000  1.736111e-03
  0.83333333  0.54166667  0.00000000  1.736111e-03
  0.83333333  0.58333333  0.00000000  1.736111e-03
  0.83333333  0.62500000  0.00000000  1.736111e-03
  0.83333333  0.66666667  0.00000000  1.736111e-03
  0.83333333  0.70833333  0.00000000  1.736111e-03
  0.83333333  0.75000000  0.00000000  1.736111e-03
  0.83333333  0.79166667  0.00000000  1.736111e-03
  0.83333333  0.83333333  0.00000000  1.736111e-03
  0.83333333  0.87500000  0.00000000  1.736111e-03
  0.83333333  0.91666667  0.00000000  1.736111e-03
  0.83333333  0.95833333  0.00000000  1.736111e-03
  0.87500000  0.00000000  0.00000000  1.736111e-03
  0.87500000  0.04166667  0.00000000  1.736111e-03
  0.87500000  0.08333333  0.00000000  1.736111e-03
  0.87500000  0.12500000  0.00000000  1.736111e-03
  0.87500000  0.16666667  0.00000000  1.736111e-03
  0.87500000  0.20833333  0.00000000  1.736111e-03
  0.87500000  0.25000000  0.00000000  1.736111e-03
  0.87500000  0.29166667  0.00000000  1.736111e-03
  0.87500000  0.33333333  0.00000000  1.736111e-03
  0.87500000  0.37500000  0.00000000  1.736111e-03
  0.87500000  0.41666667  0.00000000  1.736111e-03
  0.87500000  0.45833333  0.00000000  1.736111e-03
  0.87500000  0.50000000  0.00000000  1.736111e-03
  0.87500000  0.54166667  0.00000000  1.736111e-03
  0.87500000  0.58333333  0.00000000  1.736111e-03
  0.87500000  0.62500000  0.00000000  1.736111e-03
  0.87500000  0.66666667  0.00000000  1.736111e-03
  0.87500000  0.70833333  0.00000000  1.736111e-03
  0.87500000  0.75000000  0.00000000  1.736111e-03
  0.87500000  0.79166667  0.00000000  1.736111e-03
  0.87500000  0.83333333  0.00000000  1.736111e-03
  0.87500000  0.87500000  0.00000000  1.736111e-03
  0.87500000  0.91666667  0.00000000  1.736111e-03
  0.87500000  0.95833333  0.00000000  1.736111e-03
  0.91666667  0.00000000  0.00000000  1.736111e-03
  0.91666667  0.04166667  0.00000000  1.736111e-03
  0.91666667  0.08333333  0.00000000  1.736111e-03
  0.91666667  0.12500000  0.00000000  1.736111e-03
  0.91666667  0.16666667  0.00000000  1.736111e-03
  0.91666667  0.20833333  0.00000000  1.736111e-03
  0.91666667  0.25000000  0.00000000  1.736111e-03
  0.91666667  0.29166667  0.00000000  1.736111e-03
  0.91666667  0.33333333  0.00000000  1.736111e-03
  0.91666667  0.37500000  0.00000000  1.736111e-03
  0.91666667  0.41666667  0.00000000  1.736111e-03
  0.91666667  0.45833333  0.00000000  1.736111e-03
  0.91666667  0.50000000  0.00000000  1.736111e-03
  0.91666667  0.54166667  0.00000000  1.736111e-03
  0.91666667  0.58333333  0.00000000  1.736111e-03
  0.91666667  0.62500000  0.00000000  1.736111e-03
  0.91666667  0.66666667  0.00000000  1.736111e-03
  0.91666667  0.70833333  0.00000000  1.736111e-03
  0.91666667  0.75000000  0.00000000  1.736111e-03
  0.91666667  0.79166667  0.00000000  1.736111e-03
  0.91666667  0.83333333  0.00000000  1.736111e-03
  0.91666667  0.87500000  0.00000000  1.736111e-03
  0.91666667  0.91666667  0.00000000  1.736111e-03
  0.91666667  0.95833333  0.00000000  1.736111e-03
  0.95833333  0.00000000  0.00000000  1.736111e-03
  0.95833333  0.04166667  0.00000000  1.736111e-03
  0.95833333  0.08333333  0.00000000  1.736111e-03
  0.95833333  0.12500000  0.00000000  1.736111e-03
  0.95833333  0.16666667  0.00000000  1.736111e-03
  0.95833333  0.20833333  0.00000000  1.736111e-03
  0.95833333  0.25000000  0.00000000  1.736111e-03
  0.95833333  0.29166667  0.00000000  1.736111e-03
  0.95833333  0.33333333  0.00000000  1.736111e-03
  0.95833333  0.37500000  0.00000000  1.736111e-03
  0.95833333  0.41666667  0.00000000  1.736111e-03
  0.95833333  0.45833333  0.00000000  1.736111e-03
  0.95833333  0.50000000  0.00000000  1.736111e-03
  0.95833333  0.54166667  0.00000000  1.736111e-03
  0.95833333  0.58333333  0.00000000  1.736111e-03
  0.95833333  0.62500000  0.00000000  1.736111e-03
  0.95833333  0.66666667  0.00000000  1.736111e-03
  0.95833333  0.70833333  0.00000000  1.736111e-03
  0.95833333  0.75000000  0.00000000  1.736111e-03