&input
  fildyn = 'Si.dyn'
  zasr = 'simple'
  flfrc = 'Si.fc'
/
