&bands
outdir = './outdir'
prefix = 'Graphene'
filband = 'Graphene.bands.dat'
/
